Averaged structure from trajectory

288 atoms
1 atom types

-4.4730637053193002e-02 1.4645149995039709e+01 xlo xhi
0.0000000000000000e+00 1.6278132124829177e+01 ylo yhi
0.0000000000000000e+00 1.4679632186677400e+01 zlo zhi
-4.4730637053193002e-02 2.0369407386109699e-02 6.9513836995079098e-02 xy xz yz

Masses

1 28.0855

Atoms

1 1 1.60946355 0.03025649 4.05103506
2 1 3.23622412 -0.00096749 0.84030467
3 1 0.81204637 0.00427421 1.60507815
4 1 4.03779720 0.01110747 3.28454625
5 1 2.43812512 1.78689321 2.43181728
6 1 2.42997194 5.81110900 -0.00670895
7 1 2.44201190 6.36981118 2.43611444
8 1 2.43179054 2.28063369 -0.00582560
9 1 4.05025809 4.10341982 4.04250260
10 1 0.81775452 4.04308198 0.81556955
11 1 3.26277914 4.06911472 1.58642691
12 1 1.61110772 4.09271983 3.25902659
13 1 0.00894740 5.83262476 2.42791123
14 1 0.00052502 1.74169462 -0.00691502
15 1 0.00566833 2.30764060 2.43166804
16 1 -0.01028062 6.33547682 0.00067806
17 1 1.62726104 0.03183143 8.93426054
18 1 3.26401924 0.04468453 5.72279018
19 1 0.83808196 0.05677671 6.49703318
20 1 4.06207748 0.04709520 8.17305829
21 1 2.44660844 1.81416738 7.32553446
22 1 2.42760448 5.84249880 4.87953599
23 1 2.41738865 6.37719500 7.33609042
24 1 2.43784795 2.33296046 4.87497815
25 1 4.04944155 4.08620438 8.94425076
26 1 0.82747577 4.07665257 5.71580884
27 1 3.26226949 4.11359022 6.49040313
28 1 1.60450103 4.10010684 8.16847548
29 1 -0.01349062 5.85600801 7.32409652
30 1 0.00146364 1.79139959 4.86158411
31 1 -0.00540832 2.32832269 7.31438834
32 1 -0.00899355 6.35445530 4.88688113
33 1 1.62157749 0.03499386 13.83511718
34 1 3.26864361 0.05340238 10.61544416
35 1 0.84218527 0.07395301 11.38917892
36 1 4.04127685 0.04981511 13.07342188
37 1 2.42334653 1.82844075 12.24325704
38 1 2.42795252 5.87022933 9.78912377
39 1 2.43450381 6.39973824 12.24080160
40 1 2.42967031 2.32862909 9.77131592
41 1 4.06345780 4.10988178 13.83651518
42 1 0.82017953 4.09981946 10.61244855
43 1 3.25602068 4.09761822 11.38342208
44 1 1.61377864 4.12107581 13.05978292
45 1 -0.00570301 5.88162463 12.22801239
46 1 0.00300849 1.82048264 9.76001218
47 1 -0.00918905 2.34986005 12.22395035
48 1 -0.01141728 6.39488334 9.77714522
49 1 1.59827929 8.11423368 4.06176638
50 1 3.26058720 8.10251914 0.83150334
51 1 0.82548723 8.12513541 1.61937928
52 1 4.03629655 8.12229629 3.29637419
53 1 2.41682269 9.87146731 2.44556906
54 1 2.40101313 13.89580519 -0.00676830
55 1 2.40585658 14.44995495 2.43557248
56 1 2.41776357 10.37869454 -0.00090884
57 1 4.02548426 12.16856244 4.07247166
58 1 0.78604373 12.14251019 0.82202871
59 1 3.22499122 12.16006304 1.61399610
60 1 1.58092689 12.15908312 3.27977965
61 1 -0.01767911 13.92558322 2.43311640
62 1 -0.02801031 9.87132413 -0.01301410
63 1 -0.02444705 10.40288382 2.43819919
64 1 -0.05078154 14.43266573 -0.00330521
65 1 1.60286458 8.15786422 8.94937618
66 1 3.23205176 8.12185706 5.73042781
67 1 0.79896687 8.14468631 6.49836611
68 1 4.03526687 8.12434016 8.16965338
69 1 2.42226644 9.88495242 7.33341195
70 1 2.42025820 13.93899900 4.87860071
71 1 2.42650006 14.49119930 7.33147703
72 1 2.40102366 10.40636881 4.88485516
73 1 4.03564139 12.21631119 8.95057315
74 1 0.79730622 12.18510390 5.71353042
75 1 3.24591706 12.17586274 6.49356446
76 1 1.59851319 12.19810360 8.15367684
77 1 -0.01037276 13.97047283 7.32692804
78 1 -0.02560304 9.88036736 4.89325894
79 1 -0.01570755 10.43778212 7.33364532
80 1 -0.01761749 14.47105954 4.88493912
81 1 1.61110603 8.16595584 13.84716284
82 1 3.25327901 8.17397042 10.61951099
83 1 0.81728565 8.16457852 11.39875075
84 1 4.06433747 8.16121105 13.07072777
85 1 2.42448246 9.92473608 12.22140929
86 1 2.40784261 13.96325015 9.78598682
87 1 2.41749885 14.48803017 12.21883327
88 1 2.41242241 10.44833986 9.77138834
89 1 4.05023003 12.18702278 13.84228781
90 1 0.80495608 12.20937113 10.61253367
91 1 3.24913464 12.20375844 11.39392517
92 1 1.60875349 12.20470040 13.06926174
93 1 -0.00547044 13.99308701 12.21863097
94 1 -0.02681057 9.90959677 9.77354332
95 1 -0.00643383 10.45237223 12.22912168
96 1 -0.02653900 14.50120210 9.77240637
97 1 6.47445250 0.02872998 4.07503361
98 1 8.12188836 -0.02676773 0.84952148
99 1 5.67856918 -0.02361625 1.61385451
100 1 8.91624478 -0.00953090 3.29518667
101 1 7.30142452 1.75370114 2.44386891
102 1 7.31292988 5.79406644 0.01566660
103 1 7.30003840 6.34478684 2.45599782
104 1 7.30218849 2.26473985 -0.00073886
105 1 8.92587998 4.07240333 4.05307169
106 1 5.69685202 4.03894843 0.82493048
107 1 8.13530283 4.01767577 1.61758725
108 1 6.48226331 4.05862985 3.27712388
109 1 4.87626410 5.83739942 2.42442137
110 1 4.85618727 1.73745990 -0.00036825
111 1 4.87432015 2.29638070 2.43226048
112 1 4.87475435 6.33139088 -0.01005685
113 1 6.49677182 0.07537961 8.96502542
114 1 8.14499970 0.02144009 5.72896138
115 1 5.70545490 0.05437657 6.50712832
116 1 8.93569799 0.01289148 8.18340033
117 1 7.32183703 1.80666266 7.33377608
118 1 7.29972946 5.83297684 4.87843420
119 1 7.28767669 6.38024908 7.34088072
120 1 7.30313102 2.31396112 4.88940793
121 1 8.92336685 4.13046260 8.94876872
122 1 5.69558114 4.09025793 5.71552846
123 1 8.13854353 4.09396446 6.49974570
124 1 6.48242027 4.08183855 8.16704076
125 1 4.86001990 5.84983783 7.33306735
126 1 4.86942931 1.80581863 4.88835678
127 1 4.87089192 2.34388899 7.33692090
128 1 4.86845787 6.37973715 4.88431854
129 1 6.48868249 0.02787441 13.86328911
130 1 8.15135006 0.07081705 10.63575924
131 1 5.70299485 0.03813148 11.40543247
132 1 8.93462208 0.01417258 13.08913407
133 1 7.30388075 1.78930316 12.25563327
134 1 7.31274282 5.86181005 9.80226661
135 1 7.31008704 6.38704436 12.24782747
136 1 7.30360767 2.34982964 9.79845764
137 1 8.93039399 4.11491279 13.84918981
138 1 5.69348985 4.10435256 10.61742218
139 1 8.13294545 4.07035707 11.41333606
140 1 6.48064232 4.07901022 13.07689211
141 1 4.87326636 5.85318914 12.22824925
142 1 4.87757699 1.80670335 9.78804151
143 1 4.86794275 2.32907052 12.22340350
144 1 4.86844284 6.37796642 9.77716711
145 1 6.47848025 8.14357487 4.06635558
146 1 8.12875080 8.10122411 0.85265056
147 1 5.70754040 8.11912534 1.62933524
148 1 8.91241253 8.08523062 3.29582299
149 1 7.29659089 9.87486990 2.46016357
150 1 7.26522152 13.90007952 0.01664957
151 1 7.27419594 14.43963976 2.46385525
152 1 7.29681709 10.39263953 0.00322303
153 1 8.90405462 12.17960719 4.08292163
154 1 5.66649867 12.14227313 0.85300500
155 1 8.10461653 12.17404985 1.64789083
156 1 6.45107250 12.17292927 3.31424953
157 1 4.84873511 13.91704266 2.44242445
158 1 4.86647995 9.84999169 -0.01331449
159 1 4.84984167 10.38964215 2.44884307
160 1 4.80936466 14.42561119 -0.00590401
161 1 6.47447976 8.15211822 8.94870461
162 1 8.12643375 8.10502395 5.73403199
163 1 5.69199565 8.15930352 6.50334848
164 1 8.92070143 8.11630658 8.19234927
165 1 7.31012814 9.90326470 7.34163520
166 1 7.28990776 13.95529321 4.90832583
167 1 7.27951567 14.49220829 7.35898606
168 1 7.29322014 10.42120220 4.91379576
169 1 8.92457798 12.24670310 8.95923733
170 1 5.68492208 12.17637872 5.74994110
171 1 8.11930793 12.23187972 6.52818895
172 1 6.48042059 12.18420699 8.20025284
173 1 4.86046099 13.96704066 7.33820633
174 1 4.83995019 9.89080778 4.90369638
175 1 4.84494863 10.42788691 7.36116088
176 1 4.84315221 14.47463796 4.89715991
177 1 6.51383124 8.16257922 13.85941499
178 1 8.12432690 8.16052193 10.63045744
179 1 5.70415764 8.12803762 11.39598462
180 1 8.93967737 8.15372156 13.08583347
181 1 7.29547148 9.91519169 12.24354815
182 1 7.29695132 13.98136823 9.79656151
183 1 7.28964311 14.48164875 12.23796134
184 1 7.30423724 10.44471587 9.78385297
185 1 8.91173882 12.24675704 13.87755015
186 1 5.67946140 12.21774955 10.62700220
187 1 8.12101426 12.19542338 11.39653337
188 1 6.48739406 12.21036573 13.07425554
189 1 4.85663411 13.96423916 12.23884336
190 1 4.86172330 9.90730436 9.78310940
191 1 4.86704860 10.45114296 12.22020180
192 1 4.84931020 14.50057792 9.78330591
193 1 11.36239081 0.02013075 4.06755211
194 1 13.00126074 -0.01495661 0.84094726
195 1 10.56802687 0.02503511 1.62796010
196 1 13.79973836 -0.00098637 3.28765595
197 1 12.20216234 1.76911502 2.43135890
198 1 12.17323676 5.81491891 -0.00915093
199 1 12.17210140 6.35174264 2.45079139
200 1 12.18687183 2.28562050 -0.00802556
201 1 13.81078212 4.07792120 4.02877136
202 1 10.57315065 4.02098060 0.83399740
203 1 13.00772078 4.07059342 1.58608747
204 1 11.37158681 4.06104858 3.27522263
205 1 9.74930851 5.80031605 2.43211486
206 1 9.72461743 1.75410021 0.00121714
207 1 9.75001509 2.27981111 2.45998714
208 1 9.75716585 6.34525719 0.01309235
209 1 11.36820000 0.07985532 8.96011366
210 1 13.02997183 0.02180741 5.73340823
211 1 10.58074236 0.06484729 6.51061784
212 1 13.81067393 0.04608427 8.16885658
213 1 12.18716474 1.81082930 7.33483190
214 1 12.17035315 5.83209674 4.88211395
215 1 12.16382188 6.37274235 7.34237827
216 1 12.18692428 2.30832657 4.87046520
217 1 13.79436304 4.09760199 8.92928365
218 1 10.56815834 4.06008360 5.72769168
219 1 12.99866863 4.08811241 6.47864103
220 1 11.35636254 4.09407320 8.16397928
221 1 9.74792624 5.85729658 7.32124669
222 1 9.73652471 1.79378669 4.89484332
223 1 9.73387531 2.33283284 7.35381379
224 1 9.75219014 6.35316226 4.89056239
225 1 11.38012797 0.08847431 13.85652647
226 1 13.04218252 0.06588213 10.62410060
227 1 10.58629241 0.07505971 11.41757233
228 1 13.80634496 0.06857833 13.05842627
229 1 12.18164106 1.83366920 12.22837562
230 1 12.17649540 5.86182076 9.77440972
231 1 12.17617712 6.41604550 12.23090460
232 1 12.18431089 2.34623873 9.79079401
233 1 13.80513886 4.09968487 13.82524326
234 1 10.57003986 4.09061684 10.62105055
235 1 13.01082128 4.13750061 11.38326803
236 1 11.35532877 4.11250071 13.05668611
237 1 9.74981251 5.86368364 12.22295654
238 1 9.73387417 1.83071866 9.79116922
239 1 9.73732732 2.33759297 12.24683636
240 1 9.75852103 6.39260799 9.79660395
241 1 11.34537762 8.13392729 4.04850204
242 1 13.00522677 8.10731875 0.85053190
243 1 10.57059830 8.13080767 1.61585443
244 1 13.78543157 8.10438586 3.29175510
245 1 12.17092498 9.88713101 2.44967679
246 1 12.14185624 13.92306154 0.00067717
247 1 12.15425105 14.45416114 2.45759283
248 1 12.15265714 10.39807043 0.01023639
249 1 13.77024096 12.18445185 4.03879302
250 1 10.54463773 12.16556923 0.84891796
251 1 12.97466354 12.17759241 1.60863562
252 1 11.32767722 12.15743836 3.29660753
253 1 9.72521057 13.92887483 2.46750260
254 1 9.72548451 9.88123126 -0.00245562
255 1 9.71895052 10.40233636 2.44985392
256 1 9.71852820 14.44963297 0.03385539
257 1 11.35173866 8.17372276 8.95356477
258 1 12.98399361 8.10514488 5.73057851
259 1 10.56164575 8.16377540 6.50792814
260 1 13.77907712 8.15141720 8.16978953
261 1 12.16970100 9.91013804 7.34094578
262 1 12.16722078 13.94612278 4.90375202
263 1 12.16577223 14.49004745 7.35424391
264 1 12.17444695 10.40804635 4.90559427
265 1 13.78208891 12.21767023 8.93498469
266 1 10.55859760 12.16998202 5.74591747
267 1 12.99042617 12.20717323 6.49972519
268 1 11.35497203 12.18359850 8.18681191
269 1 9.75274955 13.97070390 7.34888340
270 1 9.72438661 9.89034439 4.89443892
271 1 9.71898302 10.44252118 7.34701317
272 1 9.73765648 14.46963946 4.92351753
273 1 11.37707213 8.18117397 13.85310450
274 1 13.00615005 8.14132851 10.61850440
275 1 10.57038262 8.17953869 11.40333626
276 1 13.79671119 8.16787719 13.06816933
277 1 12.18604865 9.92507314 12.22588691
278 1 12.16360230 13.98674895 9.79224060
279 1 12.15674056 14.52017303 12.24665554
280 1 12.18110519 10.45379251 9.79772362
281 1 13.77640919 12.23043497 13.83115445
282 1 10.56005704 12.20613057 10.64307203
283 1 12.99663626 12.24448511 11.39277722
284 1 11.34484625 12.20263427 13.06681119
285 1 9.73356688 13.97605175 12.25509520
286 1 9.73889244 9.92535638 9.78489382
287 1 9.72436298 10.46151878 12.24700949
288 1 9.73822746 14.51409890 9.81332421
