LAMMPS data file via write_data, version 29 Aug 2024, timestep = 214, units = real

288 atoms
1 atom types

-0.014505272105624642 14.342505272105619 xlo xhi
0.2581475280161247 15.790252471983894 ylo yhi
-0.05181908976436775 14.44011908976436 zlo zhi
0 0 0 xy xz yz

Masses

1 28.0855

Atoms # atomic

1 1 1.551855717978662 0.2581475280161272 3.963793971365468 0 0 0
2 1 3.204803919213817 0.2581475280161354 0.7632139089487048 0 0 0
3 1 0.811968828511947 0.25814752801613583 1.5484709414440185 0 0 0
4 1 3.9446908086805323 0.25814752801614954 3.1785369388701685 0 0 0
5 1 2.378329818596255 1.9707945466672545 2.363503940157089 0 0 0
6 1 2.37832981859626 5.853820782659186 -0.051819089764360636 0 0 0
7 1 2.3783298185962405 6.311552981348905 2.3635039401570834 0 0 0
8 1 2.3783298185962485 2.4285267453569435 -0.05181908976436468 0 0 0
9 1 3.944690808680534 4.141173764008039 3.963793971365444 0 0 0
10 1 0.8119688285119523 4.141173764008073 0.763213908948706 0 0 0
11 1 3.204803919213826 4.141173764008071 1.5484709414440214 0 0 0
12 1 1.5518557179786565 4.1411737640080775 3.1785369388701636 0 0 0
13 1 -0.014505272105621239 5.853820782659197 2.363503940157095 0 0 0
14 1 14.342505272105601 1.9707945466672563 -0.05181908976435918 -1 0 0
15 1 14.342505272105592 2.428526745356958 2.363503940157109 -1 0 0
16 1 -0.014505272105607281 6.311552981348896 -0.05181908976434896 0 0 0
17 1 1.5518557179786712 0.2581475280161424 8.794440031208392 0 0 0
18 1 3.204803919213817 15.79025247198389 5.59385996879161 0 -1 0
19 1 0.8119688285119498 0.2581475280161362 6.379117001286934 0 0 0
20 1 3.9446908086805443 0.2581475280161247 8.00918299871307 0 0 0
21 1 2.3783298185962525 1.9707945466672516 7.1941500000000085 0 0 0
22 1 2.378329818596251 5.853820782659215 4.778826970078546 0 0 0
23 1 2.3783298185962707 6.311552981348884 7.1941500000000005 0 0 0
24 1 2.37832981859625 2.428526745356951 4.778826970078551 0 0 0
25 1 3.944690808680557 4.141173764008064 8.794440031208367 0 0 0
26 1 0.811968828511957 4.141173764008083 5.5938599687916435 0 0 0
27 1 3.2048039192138287 4.141173764008068 6.379117001286939 0 0 0
28 1 1.5518557179786736 4.141173764008091 8.009182998713074 0 0 0
29 1 -0.014505272105601 5.853820782659195 7.194150000000018 0 0 0
30 1 -0.01450527210560949 1.9707945466672667 4.778826970078548 0 0 0
31 1 -0.014505272105624642 2.4285267453569643 7.194149999999994 0 0 0
32 1 14.342505272105615 6.311552981348896 4.778826970078547 -1 0 0
33 1 1.5518557179786785 0.2581475280161289 13.625086091051283 0 0 0
34 1 3.2048039192138176 0.25814752801613255 10.424506028634534 0 0 0
35 1 0.8119688285119523 0.2581475280161279 11.209763061129843 0 0 0
36 1 3.9446908086805563 0.2581475280161302 12.839829058555996 0 0 0
37 1 2.3783298185962516 1.9707945466672565 12.02479605984292 0 0 0
38 1 2.378329818596239 5.853820782659213 9.609473029921462 0 0 0
39 1 2.3783298185962565 6.311552981348898 12.024796059842913 0 0 0
40 1 2.378329818596272 2.428526745356953 9.60947302992146 0 0 0
41 1 3.9446908086805696 4.141173764008068 13.62508609105127 0 0 0
42 1 0.8119688285119568 4.141173764008073 10.42450602863453 0 0 0
43 1 3.2048039192138216 4.141173764008055 11.209763061129829 0 0 0
44 1 1.5518557179786698 4.141173764008075 12.83982905855598 0 0 0
45 1 14.342505272105617 5.853820782659213 12.0247960598429 -1 0 0
46 1 -0.01450527210561743 1.9707945466672476 9.60947302992146 0 0 0
47 1 -0.014505272105622465 2.4285267453569688 12.024796059842918 0 0 0
48 1 -0.014505272105622394 6.311552981348914 9.609473029921448 0 0 0
49 1 1.5518557179786745 8.024199999999997 3.9637939713654804 0 0 0
50 1 3.204803919213837 8.02420000000001 0.7632139089487048 0 0 0
51 1 0.8119688285119585 8.024200000000024 1.5484709414440128 0 0 0
52 1 3.944690808680553 8.024200000000024 3.1785369388701787 0 0 0
53 1 2.378329818596258 9.736847018651142 2.363503940157097 0 0 0
54 1 2.378329818596245 13.619873254643078 14.440119089764345 0 0 -1
55 1 2.3783298185962396 14.077605453332778 2.363503940157094 0 0 0
56 1 2.3783298185962605 10.194579217340829 -0.05181908976435879 0 0 0
57 1 3.944690808680534 11.907226235991953 3.9637939713654777 0 0 0
58 1 0.811968828511943 11.907226235991955 0.763213908948726 0 0 0
59 1 3.204803919213813 11.90722623599197 1.548470941443999 0 0 0
60 1 1.5518557179786674 11.907226235991933 3.178536938870166 0 0 0
61 1 14.342505272105612 13.619873254643103 2.363503940157099 -1 0 0
62 1 -0.014505272105618472 9.736847018651154 14.440119089764357 0 0 -1
63 1 14.342505272105617 10.194579217340834 2.363503940157103 -1 0 0
64 1 14.342505272105617 14.077605453332785 -0.051819089764353544 -1 0 0
65 1 1.5518557179786778 8.024200000000002 8.7944400312084 0 0 0
66 1 3.2048039192138296 8.024200000000002 5.593859968791612 0 0 0
67 1 0.8119688285119564 8.024200000000011 6.379117001286958 0 0 0
68 1 3.944690808680557 8.024200000000032 8.00918299871309 0 0 0
69 1 2.3783298185962507 9.736847018651158 7.1941499999999925 0 0 0
70 1 2.3783298185962516 13.619873254643078 4.778826970078556 0 0 0
71 1 2.3783298185962254 14.077605453332797 7.194150000000003 0 0 0
72 1 2.3783298185962445 10.194579217340852 4.7788269700785495 0 0 0
73 1 3.9446908086805386 11.907226235991953 8.794440031208413 0 0 0
74 1 0.8119688285119577 11.907226235991946 5.593859968791619 0 0 0
75 1 3.20480391921383 11.907226235991962 6.379117001286932 0 0 0
76 1 1.5518557179786894 11.907226235991951 8.009182998713088 0 0 0
77 1 14.342505272105614 13.619873254643087 7.194150000000018 -1 0 0
78 1 -0.014505272105611176 9.736847018651135 4.778826970078563 0 0 0
79 1 -0.014505272105624642 10.19457921734083 7.1941500000000005 0 0 0
80 1 14.342505272105603 14.077605453332781 4.778826970078563 -1 0 0
81 1 1.551855717978677 8.02419999999998 13.62508609105128 0 0 0
82 1 3.2048039192138282 8.02420000000002 10.42450602863454 0 0 0
83 1 0.8119688285119648 8.024199999999997 11.209763061129829 0 0 0
84 1 3.9446908086805603 8.024200000000024 12.83982905855598 0 0 0
85 1 2.378329818596245 9.736847018651158 12.024796059842917 0 0 0
86 1 2.3783298185962476 13.619873254643108 9.609473029921464 0 0 0
87 1 2.378329818596259 14.07760545333279 12.024796059842917 0 0 0
88 1 2.378329818596238 10.194579217340861 9.609473029921457 0 0 0
89 1 3.9446908086805403 11.907226235991955 13.625086091051283 0 0 0
90 1 0.8119688285119457 11.907226235991962 10.42450602863452 0 0 0
91 1 3.2048039192138122 11.907226235991963 11.209763061129841 0 0 0
92 1 1.551855717978685 11.907226235991947 12.839829058555981 0 0 0
93 1 14.342505272105615 13.619873254643101 12.024796059842913 -1 0 0
94 1 -0.014505272105624196 9.73684701865116 9.609473029921451 0 0 0
95 1 -0.014505272105614642 10.194579217340818 12.02479605984291 0 0 0
96 1 14.342505272105607 14.077605453332772 9.609473029921457 -1 0 0
97 1 6.337525899382433 0.2581475280161397 3.963793971365451 0 0 0
98 1 7.990474100617567 15.790252471983878 0.7632139089487076 0 -1 0
99 1 5.597639009915701 0.2581475280161262 1.5484709414440088 0 0 0
100 1 8.7303609900843 0.258147528016135 3.178536938870172 0 0 0
101 1 7.164000000000011 1.9707945466672636 2.363503940157087 0 0 0
102 1 7.1639999999999935 5.85382078265919 -0.05181908976436094 0 0 0
103 1 7.163999999999993 6.311552981348912 2.363503940157089 0 0 0
104 1 7.1639999999999855 2.4285267453569546 -0.051819089764342234 0 0 0
105 1 8.730360990084282 4.141173764008075 3.9637939713654804 0 0 0
106 1 5.597639009915687 4.141173764008104 0.7632139089487051 0 0 0
107 1 7.990474100617577 4.141173764008088 1.5484709414440008 0 0 0
108 1 6.337525899382416 4.141173764008085 3.178536938870152 0 0 0
109 1 4.771164909298122 5.853820782659202 2.3635039401570928 0 0 0
110 1 4.771164909298105 1.970794546667244 -0.05181908976435056 0 0 0
111 1 4.771164909298121 2.428526745356958 2.3635039401570843 0 0 0
112 1 4.77116490929811 6.311552981348896 14.440119089764352 0 0 -1
113 1 6.33752589938243 0.25814752801612484 8.79444003120838 0 0 0
114 1 7.99047410061757 0.2581475280161331 5.593859968791617 0 0 0
115 1 5.5976390099157065 0.2581475280161338 6.379117001286919 0 0 0
116 1 8.730360990084309 0.25814752801614305 8.009182998713074 0 0 0
117 1 7.164000000000003 1.970794546667274 7.1941500000000005 0 0 0
118 1 7.16399999999999 5.853820782659206 4.778826970078541 0 0 0
119 1 7.164000000000005 6.311552981348871 7.1941500000000085 0 0 0
120 1 7.1639999999999935 2.4285267453569412 4.778826970078537 0 0 0
121 1 8.730360990084309 4.141173764008059 8.794440031208355 0 0 0
122 1 5.597639009915692 4.141173764008061 5.59385996879161 0 0 0
123 1 7.9904741006175755 4.141173764008078 6.379117001286908 0 0 0
124 1 6.337525899382435 4.141173764008071 8.009182998713063 0 0 0
125 1 4.771164909298129 5.853820782659186 7.194150000000015 0 0 0
126 1 4.771164909298118 1.9707945466672538 4.778826970078541 0 0 0
127 1 4.771164909298133 2.4285267453569563 7.194150000000026 0 0 0
128 1 4.771164909298117 6.311552981348912 4.778826970078551 0 0 0
129 1 6.3375258993824195 15.790252471983873 13.625086091051287 0 -1 0
130 1 7.990474100617556 0.2581475280161266 10.424506028634534 0 0 0
131 1 5.59763900991568 15.790252471983884 11.209763061129818 0 -1 0
132 1 8.730360990084309 15.790252471983885 12.839829058555994 0 -1 0
133 1 7.163999999999985 1.9707945466672805 12.024796059842924 0 0 0
134 1 7.163999999999999 5.853820782659199 9.60947302992146 0 0 0
135 1 7.164000000000001 6.311552981348905 12.024796059842924 0 0 0
136 1 7.1639999999999855 2.4285267453569594 9.609473029921475 0 0 0
137 1 8.730360990084272 4.141173764008061 13.625086091051303 0 0 0
138 1 5.597639009915696 4.1411737640080775 10.424506028634523 0 0 0
139 1 7.9904741006175595 4.141173764008061 11.20976306112984 0 0 0
140 1 6.337525899382432 4.1411737640080695 12.839829058555956 0 0 0
141 1 4.771164909298112 5.853820782659213 12.024796059842915 0 0 0
142 1 4.771164909298114 1.9707945466672585 9.60947302992147 0 0 0
143 1 4.771164909298129 2.428526745356953 12.024796059842917 0 0 0
144 1 4.771164909298121 6.311552981348898 9.60947302992146 0 0 0
145 1 6.337525899382415 8.024200000000022 3.9637939713654786 0 0 0
146 1 7.9904741006175755 8.02420000000002 0.7632139089486957 0 0 0
147 1 5.597639009915704 8.02420000000003 1.5484709414440034 0 0 0
148 1 8.730360990084293 8.02420000000001 3.178536938870159 0 0 0
149 1 7.164000000000009 9.736847018651142 2.3635039401570865 0 0 0
150 1 7.163999999999977 13.619873254643108 -0.05181908976435178 0 0 0
151 1 7.163999999999999 14.077605453332774 2.3635039401571 0 0 0
152 1 7.164000000000001 10.194579217340838 14.44011908976434 0 0 -1
153 1 8.730360990084282 11.907226235991972 3.9637939713654715 0 0 0
154 1 5.5976390099157065 11.907226235991969 0.7632139089487001 0 0 0
155 1 7.990474100617567 11.907226235991933 1.54847094144401 0 0 0
156 1 6.337525899382418 11.907226235991944 3.178536938870158 0 0 0
157 1 4.771164909298123 13.619873254643085 2.3635039401570856 0 0 0
158 1 4.771164909298142 9.736847018651147 -0.05181908976436259 0 0 0
159 1 4.771164909298111 10.194579217340843 2.3635039401570825 0 0 0
160 1 4.771164909298129 14.077605453332776 -0.051819089764361816 0 0 0
161 1 6.337525899382426 8.024200000000004 8.794440031208383 0 0 0
162 1 7.990474100617586 8.024199999999988 5.593859968791629 0 0 0
163 1 5.597639009915705 8.024200000000025 6.379117001286945 0 0 0
164 1 8.730360990084286 8.024200000000024 8.009182998713086 0 0 0
165 1 7.1639999999999935 9.736847018651122 7.1941499999999925 0 0 0
166 1 7.164000000000005 13.619873254643071 4.778826970078539 0 0 0
167 1 7.163999999999999 14.077605453332769 7.1941500000000005 0 0 0
168 1 7.164000000000005 10.19457921734083 4.778826970078566 0 0 0
169 1 8.7303609900843 11.907226235991955 8.794440031208381 0 0 0
170 1 5.597639009915716 11.907226235991958 5.593859968791627 0 0 0
171 1 7.99047410061757 11.907226235991951 6.379117001286934 0 0 0
172 1 6.337525899382427 11.907226235991969 8.009182998713069 0 0 0
173 1 4.771164909298113 13.619873254643087 7.194150000000005 0 0 0
174 1 4.771164909298145 9.73684701865114 4.778826970078572 0 0 0
175 1 4.771164909298119 10.194579217340825 7.194150000000026 0 0 0
176 1 4.771164909298125 14.07760545333279 4.778826970078545 0 0 0
177 1 6.337525899382415 8.024200000000004 13.625086091051282 0 0 0
178 1 7.990474100617565 8.02420000000001 10.42450602863453 0 0 0
179 1 5.597639009915688 8.024200000000006 11.209763061129832 0 0 0
180 1 8.7303609900843 8.024199999999981 12.83982905855598 0 0 0
181 1 7.163999999999987 9.736847018651154 12.0247960598429 0 0 0
182 1 7.1639999999999855 13.61987325464309 9.609473029921448 0 0 0
183 1 7.164000000000003 14.077605453332783 12.024796059842917 0 0 0
184 1 7.163999999999999 10.194579217340825 9.60947302992146 0 0 0
185 1 8.730360990084286 11.90722623599195 13.625086091051296 0 0 0
186 1 5.597639009915681 11.907226235991955 10.424506028634536 0 0 0
187 1 7.990474100617572 11.907226235991912 11.209763061129834 0 0 0
188 1 6.33752589938243 11.90722623599194 12.839829058555965 0 0 0
189 1 4.77116490929812 13.619873254643089 12.024796059842904 0 0 0
190 1 4.771164909298107 9.736847018651135 9.609473029921451 0 0 0
191 1 4.771164909298117 10.194579217340845 12.0247960598429 0 0 0
192 1 4.77116490929813 14.077605453332772 9.609473029921453 0 0 0
193 1 11.123196080786167 0.2581475280161329 3.9637939713654786 0 0 0
194 1 12.77614428202132 0.25814752801614177 0.7632139089486982 0 0 0
195 1 10.38330919131946 15.790252471983893 1.5484709414440039 0 -1 0
196 1 13.516031171488024 0.25814752801613355 3.178536938870189 0 0 0
197 1 11.949670181403729 1.9707945466672825 2.363503940157086 0 0 0
198 1 11.949670181403748 5.853820782659193 -0.05181908976436665 0 0 0
199 1 11.949670181403752 6.311552981348914 2.363503940157075 0 0 0
200 1 11.949670181403741 2.4285267453569412 14.44011908976435 0 0 -1
201 1 13.51603117148801 4.141173764008079 3.9637939713654804 0 0 0
202 1 10.383309191319464 4.141173764008075 0.7632139089486992 0 0 0
203 1 12.776144282021324 4.141173764008059 1.5484709414440103 0 0 0
204 1 11.123196080786144 4.141173764008089 3.1785369388701654 0 0 0
205 1 9.55683509070186 5.853820782659206 2.363503940157077 0 0 0
206 1 9.556835090701863 1.970794546667223 14.440119089764359 0 0 -1
207 1 9.556835090701865 2.4285267453569594 2.3635039401571016 0 0 0
208 1 9.556835090701883 6.311552981348891 -0.05181908976435917 0 0 0
209 1 11.123196080786162 0.2581475280161541 8.794440031208401 0 0 0
210 1 12.776144282021356 0.2581475280161421 5.593859968791607 0 0 0
211 1 10.38330919131946 0.2581475280161532 6.379117001286949 0 0 0
212 1 13.51603117148803 0.25814752801613394 8.009182998713081 0 0 0
213 1 11.949670181403743 1.970794546667282 7.1941500000000005 0 0 0
214 1 11.94967018140374 5.853820782659209 4.778826970078553 0 0 0
215 1 11.949670181403743 6.3115529813489015 7.1941499999999925 0 0 0
216 1 11.94967018140374 2.4285267453569737 4.778826970078555 0 0 0
217 1 13.516031171488038 4.141173764008052 8.794440031208374 0 0 0
218 1 10.383309191319455 4.141173764008085 5.593859968791627 0 0 0
219 1 12.77614428202134 4.141173764008066 6.379117001286952 0 0 0
220 1 11.123196080786158 4.1411737640080775 8.009182998713069 0 0 0
221 1 9.556835090701867 5.853820782659211 7.1941499999999925 0 0 0
222 1 9.556835090701847 1.970794546667255 4.778826970078548 0 0 0
223 1 9.556835090701878 2.4285267453569714 7.194150000000015 0 0 0
224 1 9.556835090701867 6.311552981348891 4.778826970078531 0 0 0
225 1 11.123196080786173 15.790252471983889 13.62508609105128 0 -1 0
226 1 12.776144282021331 0.2581475280161444 10.424506028634534 0 0 0
227 1 10.383309191319443 0.2581475280161364 11.209763061129852 0 0 0
228 1 13.516031171488061 15.790252471983882 12.839829058555994 0 -1 0
229 1 11.949670181403748 1.970794546667261 12.024796059842913 0 0 0
230 1 11.949670181403745 5.853820782659216 9.609473029921453 0 0 0
231 1 11.949670181403734 6.311552981348898 12.02479605984291 0 0 0
232 1 11.949670181403743 2.428526745356943 9.60947302992146 0 0 0
233 1 13.516031171488043 4.141173764008075 13.62508609105128 0 0 0
234 1 10.383309191319437 4.141173764008055 10.424506028634505 0 0 0
235 1 12.77614428202131 4.141173764008057 11.209763061129843 0 0 0
236 1 11.12319608078617 4.141173764008059 12.839829058555976 0 0 0
237 1 9.556835090701867 5.853820782659211 12.024796059842924 0 0 0
238 1 9.556835090701853 1.9707945466672492 9.609473029921466 0 0 0
239 1 9.556835090701867 2.428526745356937 12.024796059842913 0 0 0
240 1 9.556835090701885 6.311552981348893 9.609473029921466 0 0 0
241 1 11.123196080786174 8.024200000000002 3.963793971365468 0 0 0
242 1 12.776144282021324 8.024200000000024 0.7632139089487081 0 0 0
243 1 10.383309191319453 8.024200000000002 1.548470941444016 0 0 0
244 1 13.51603117148804 8.024200000000015 3.1785369388701867 0 0 0
245 1 11.94967018140375 9.736847018651156 2.3635039401570994 0 0 0
246 1 11.94967018140374 13.619873254643078 -0.05181908976436775 0 0 0
247 1 11.949670181403736 14.077605453332803 2.3635039401570768 0 0 0
248 1 11.949670181403762 10.194579217340832 -0.05181908976436678 0 0 0
249 1 13.516031171488061 11.907226235991923 3.963793971365469 0 0 0
250 1 10.383309191319443 11.907226235991953 0.7632139089487175 0 0 0
251 1 12.776144282021326 11.907226235991953 1.5484709414440363 0 0 0
252 1 11.123196080786157 11.907226235991974 3.1785369388701814 0 0 0
253 1 9.556835090701869 13.619873254643082 2.363503940157091 0 0 0
254 1 9.556835090701869 9.736847018651167 -0.05181908976436292 0 0 0
255 1 9.55683509070186 10.194579217340829 2.3635039401570994 0 0 0
256 1 9.556835090701862 14.077605453332785 -0.05181908976435126 0 0 0
257 1 11.123196080786174 8.024200000000011 8.794440031208389 0 0 0
258 1 12.77614428202132 8.024200000000002 5.593859968791604 0 0 0
259 1 10.38330919131945 8.024200000000022 6.379117001286912 0 0 0
260 1 13.516031171488025 8.024200000000018 8.009182998713069 0 0 0
261 1 11.949670181403736 9.736847018651144 7.194149999999996 0 0 0
262 1 11.949670181403745 13.619873254643094 4.77882697007853 0 0 0
263 1 11.949670181403752 14.077605453332795 7.1941499999999845 0 0 0
264 1 11.949670181403752 10.194579217340832 4.7788269700785495 0 0 0
265 1 13.516031171488025 11.907226235991955 8.794440031208381 0 0 0
266 1 10.383309191319452 11.907226235991931 5.593859968791618 0 0 0
267 1 12.776144282021319 11.907226235991951 6.379117001286934 0 0 0
268 1 11.123196080786162 11.907226235991953 8.009182998713065 0 0 0
269 1 9.556835090701863 13.619873254643101 7.1941499999999845 0 0 0
270 1 9.556835090701885 9.73684701865114 4.7788269700785335 0 0 0
271 1 9.556835090701869 10.194579217340845 7.1941500000000085 0 0 0
272 1 9.556835090701894 14.077605453332792 4.7788269700785495 0 0 0
273 1 11.123196080786185 8.024200000000011 13.625086091051275 0 0 0
274 1 12.776144282021328 8.024200000000025 10.424506028634521 0 0 0
275 1 10.383309191319446 8.0242 11.209763061129843 0 0 0
276 1 13.516031171488054 8.024200000000018 12.839829058555988 0 0 0
277 1 11.949670181403755 9.73684701865116 12.024796059842933 0 0 0
278 1 11.949670181403732 13.619873254643089 9.609473029921453 0 0 0
279 1 11.949670181403759 14.077605453332781 12.02479605984289 0 0 0
280 1 11.949670181403743 10.194579217340861 9.609473029921457 0 0 0
281 1 13.516031171488038 11.907226235991955 13.625086091051283 0 0 0
282 1 10.383309191319443 11.90722623599197 10.424506028634514 0 0 0
283 1 12.776144282021304 11.907226235991956 11.209763061129829 0 0 0
284 1 11.123196080786158 11.907226235991951 12.839829058555976 0 0 0
285 1 9.55683509070188 13.619873254643082 12.024796059842913 0 0 0
286 1 9.556835090701863 9.73684701865114 9.609473029921462 0 0 0
287 1 9.55683509070186 10.19457921734085 12.02479605984292 0 0 0
288 1 9.556835090701863 14.077605453332797 9.609473029921453 0 0 0

Velocities

1 0 0 0
2 0 0 0
3 0 0 0
4 0 0 0
5 0 0 0
6 0 0 0
7 0 0 0
8 0 0 0
9 0 0 0
10 0 0 0
11 0 0 0
12 0 0 0
13 0 0 0
14 0 0 0
15 0 0 0
16 0 0 0
17 0 0 0
18 0 0 0
19 0 0 0
20 0 0 0
21 0 0 0
22 0 0 0
23 0 0 0
24 0 0 0
25 0 0 0
26 0 0 0
27 0 0 0
28 0 0 0
29 0 0 0
30 0 0 0
31 0 0 0
32 0 0 0
33 0 0 0
34 0 0 0
35 0 0 0
36 0 0 0
37 0 0 0
38 0 0 0
39 0 0 0
40 0 0 0
41 0 0 0
42 0 0 0
43 0 0 0
44 0 0 0
45 0 0 0
46 0 0 0
47 0 0 0
48 0 0 0
49 0 0 0
50 0 0 0
51 0 0 0
52 0 0 0
53 0 0 0
54 0 0 0
55 0 0 0
56 0 0 0
57 0 0 0
58 0 0 0
59 0 0 0
60 0 0 0
61 0 0 0
62 0 0 0
63 0 0 0
64 0 0 0
65 0 0 0
66 0 0 0
67 0 0 0
68 0 0 0
69 0 0 0
70 0 0 0
71 0 0 0
72 0 0 0
73 0 0 0
74 0 0 0
75 0 0 0
76 0 0 0
77 0 0 0
78 0 0 0
79 0 0 0
80 0 0 0
81 0 0 0
82 0 0 0
83 0 0 0
84 0 0 0
85 0 0 0
86 0 0 0
87 0 0 0
88 0 0 0
89 0 0 0
90 0 0 0
91 0 0 0
92 0 0 0
93 0 0 0
94 0 0 0
95 0 0 0
96 0 0 0
97 0 0 0
98 0 0 0
99 0 0 0
100 0 0 0
101 0 0 0
102 0 0 0
103 0 0 0
104 0 0 0
105 0 0 0
106 0 0 0
107 0 0 0
108 0 0 0
109 0 0 0
110 0 0 0
111 0 0 0
112 0 0 0
113 0 0 0
114 0 0 0
115 0 0 0
116 0 0 0
117 0 0 0
118 0 0 0
119 0 0 0
120 0 0 0
121 0 0 0
122 0 0 0
123 0 0 0
124 0 0 0
125 0 0 0
126 0 0 0
127 0 0 0
128 0 0 0
129 0 0 0
130 0 0 0
131 0 0 0
132 0 0 0
133 0 0 0
134 0 0 0
135 0 0 0
136 0 0 0
137 0 0 0
138 0 0 0
139 0 0 0
140 0 0 0
141 0 0 0
142 0 0 0
143 0 0 0
144 0 0 0
145 0 0 0
146 0 0 0
147 0 0 0
148 0 0 0
149 0 0 0
150 0 0 0
151 0 0 0
152 0 0 0
153 0 0 0
154 0 0 0
155 0 0 0
156 0 0 0
157 0 0 0
158 0 0 0
159 0 0 0
160 0 0 0
161 0 0 0
162 0 0 0
163 0 0 0
164 0 0 0
165 0 0 0
166 0 0 0
167 0 0 0
168 0 0 0
169 0 0 0
170 0 0 0
171 0 0 0
172 0 0 0
173 0 0 0
174 0 0 0
175 0 0 0
176 0 0 0
177 0 0 0
178 0 0 0
179 0 0 0
180 0 0 0
181 0 0 0
182 0 0 0
183 0 0 0
184 0 0 0
185 0 0 0
186 0 0 0
187 0 0 0
188 0 0 0
189 0 0 0
190 0 0 0
191 0 0 0
192 0 0 0
193 0 0 0
194 0 0 0
195 0 0 0
196 0 0 0
197 0 0 0
198 0 0 0
199 0 0 0
200 0 0 0
201 0 0 0
202 0 0 0
203 0 0 0
204 0 0 0
205 0 0 0
206 0 0 0
207 0 0 0
208 0 0 0
209 0 0 0
210 0 0 0
211 0 0 0
212 0 0 0
213 0 0 0
214 0 0 0
215 0 0 0
216 0 0 0
217 0 0 0
218 0 0 0
219 0 0 0
220 0 0 0
221 0 0 0
222 0 0 0
223 0 0 0
224 0 0 0
225 0 0 0
226 0 0 0
227 0 0 0
228 0 0 0
229 0 0 0
230 0 0 0
231 0 0 0
232 0 0 0
233 0 0 0
234 0 0 0
235 0 0 0
236 0 0 0
237 0 0 0
238 0 0 0
239 0 0 0
240 0 0 0
241 0 0 0
242 0 0 0
243 0 0 0
244 0 0 0
245 0 0 0
246 0 0 0
247 0 0 0
248 0 0 0
249 0 0 0
250 0 0 0
251 0 0 0
252 0 0 0
253 0 0 0
254 0 0 0
255 0 0 0
256 0 0 0
257 0 0 0
258 0 0 0
259 0 0 0
260 0 0 0
261 0 0 0
262 0 0 0
263 0 0 0
264 0 0 0
265 0 0 0
266 0 0 0
267 0 0 0
268 0 0 0
269 0 0 0
270 0 0 0
271 0 0 0
272 0 0 0
273 0 0 0
274 0 0 0
275 0 0 0
276 0 0 0
277 0 0 0
278 0 0 0
279 0 0 0
280 0 0 0
281 0 0 0
282 0 0 0
283 0 0 0
284 0 0 0
285 0 0 0
286 0 0 0
287 0 0 0
288 0 0 0
