# LAMMPS data file written by OVITO Basic 3.10.6

180 atoms
1 atom types

0.0 13.93275 xlo xhi
0.0 13.2972 ylo yhi
0.0 12.7807 zlo zhi
2.4e-15 0.0 0.0 xy xz yz

Masses

1 28.0855  # Si

Atoms  # atomic

1 1 0.0 0.0 0.0
2 1 0.0 2.2162 0.8435262
3 1 2.322125 2.2162 1.27807
4 1 2.322125 0.0 2.1215962
5 1 0.0 0.0 2.55614
6 1 0.0 2.2162 3.3996662
7 1 2.322125 2.2162 3.83421
8 1 2.322125 0.0 4.6777362
9 1 0.0 0.0 5.11228
10 1 0.0 2.2162 5.9558062
11 1 2.322125 2.2162 6.39035
12 1 2.322125 0.0 7.2338762
13 1 0.0 0.0 7.66842
14 1 0.0 2.2162 8.5119462
15 1 2.322125 2.2162 8.94649
16 1 2.322125 0.0 9.7900162
17 1 0.0 0.0 10.22456
18 1 0.0 2.2162 11.0680862
19 1 2.322125 2.2162 11.50263
20 1 2.322125 0.0 12.3461562
21 1 8.881784197e-16 4.4324 0.0
22 1 8.881784197e-16 6.6486 0.8435262
23 1 2.322125 6.6486 1.27807
24 1 2.322125 4.4324 2.1215962
25 1 8.881784197e-16 4.4324 2.55614
26 1 8.881784197e-16 6.6486 3.3996662
27 1 2.322125 6.6486 3.83421
28 1 2.322125 4.4324 4.6777362
29 1 8.881784197e-16 4.4324 5.11228
30 1 8.881784197e-16 6.6486 5.9558062
31 1 2.322125 6.6486 6.39035
32 1 2.322125 4.4324 7.2338762
33 1 8.881784197e-16 4.4324 7.66842
34 1 8.881784197e-16 6.6486 8.5119462
35 1 2.322125 6.6486 8.94649
36 1 2.322125 4.4324 9.7900162
37 1 8.881784197e-16 4.4324 10.22456
38 1 8.881784197e-16 6.6486 11.0680862
39 1 2.322125 6.6486 11.50263
40 1 2.322125 4.4324 12.3461562
41 1 1.7763568394e-15 8.8648 0.0
42 1 1.7763568394e-15 11.081 0.8435262
43 1 2.322125 11.081 1.27807
44 1 2.322125 8.8648 2.1215962
45 1 1.7763568394e-15 8.8648 2.55614
46 1 1.7763568394e-15 11.081 3.3996662
47 1 2.322125 11.081 3.83421
48 1 2.322125 8.8648 4.6777362
49 1 1.7763568394e-15 8.8648 5.11228
50 1 1.7763568394e-15 11.081 5.9558062
51 1 2.322125 11.081 6.39035
52 1 2.322125 8.8648 7.2338762
53 1 1.7763568394e-15 8.8648 7.66842
54 1 1.7763568394e-15 11.081 8.5119462
55 1 2.322125 11.081 8.94649
56 1 2.322125 8.8648 9.7900162
57 1 1.7763568394e-15 8.8648 10.22456
58 1 1.7763568394e-15 11.081 11.0680862
59 1 2.322125 11.081 11.50263
60 1 2.322125 8.8648 12.3461562
61 1 4.64425 0.0 0.0
62 1 4.64425 2.2162 0.8435262
63 1 6.966375 2.2162 1.27807
64 1 6.966375 0.0 2.1215962
65 1 4.64425 0.0 2.55614
66 1 4.64425 2.2162 3.3996662
67 1 6.966375 2.2162 3.83421
68 1 6.966375 0.0 4.6777362
69 1 4.64425 0.0 5.11228
70 1 4.64425 2.2162 5.9558062
71 1 6.966375 2.2162 6.39035
72 1 6.966375 0.0 7.2338762
73 1 4.64425 0.0 7.66842
74 1 4.64425 2.2162 8.5119462
75 1 6.966375 2.2162 8.94649
76 1 6.966375 0.0 9.7900162
77 1 4.64425 0.0 10.22456
78 1 4.64425 2.2162 11.0680862
79 1 6.966375 2.2162 11.50263
80 1 6.966375 0.0 12.3461562
81 1 4.64425 4.4324 0.0
82 1 4.64425 6.6486 0.8435262
83 1 6.966375 6.6486 1.27807
84 1 6.966375 4.4324 2.1215962
85 1 4.64425 4.4324 2.55614
86 1 4.64425 6.6486 3.3996662
87 1 6.966375 6.6486 3.83421
88 1 6.966375 4.4324 4.6777362
89 1 4.64425 4.4324 5.11228
90 1 4.64425 6.6486 5.9558062
91 1 6.966375 6.6486 6.39035
92 1 6.966375 4.4324 7.2338762
93 1 4.64425 4.4324 7.66842
94 1 4.64425 6.6486 8.5119462
95 1 6.966375 6.6486 8.94649
96 1 6.966375 4.4324 9.7900162
97 1 4.64425 4.4324 10.22456
98 1 4.64425 6.6486 11.0680862
99 1 6.966375 6.6486 11.50263
100 1 6.966375 4.4324 12.3461562
101 1 4.64425 8.8648 0.0
102 1 4.64425 11.081 0.8435262
103 1 6.966375 11.081 1.27807
104 1 6.966375 8.8648 2.1215962
105 1 4.64425 8.8648 2.55614
106 1 4.64425 11.081 3.3996662
107 1 6.966375 11.081 3.83421
108 1 6.966375 8.8648 4.6777362
109 1 4.64425 8.8648 5.11228
110 1 4.64425 11.081 5.9558062
111 1 6.966375 11.081 6.39035
112 1 6.966375 8.8648 7.2338762
113 1 4.64425 8.8648 7.66842
114 1 4.64425 11.081 8.5119462
115 1 6.966375 11.081 8.94649
116 1 6.966375 8.8648 9.7900162
117 1 4.64425 8.8648 10.22456
118 1 4.64425 11.081 11.0680862
119 1 6.966375 11.081 11.50263
120 1 6.966375 8.8648 12.3461562
121 1 9.2885 0.0 0.0
122 1 9.2885 2.2162 0.8435262
123 1 11.610625 2.2162 1.27807
124 1 11.610625 0.0 2.1215962
125 1 9.2885 0.0 2.55614
126 1 9.2885 2.2162 3.3996662
127 1 11.610625 2.2162 3.83421
128 1 11.610625 0.0 4.6777362
129 1 9.2885 0.0 5.11228
130 1 9.2885 2.2162 5.9558062
131 1 11.610625 2.2162 6.39035
132 1 11.610625 0.0 7.2338762
133 1 9.2885 0.0 7.66842
134 1 9.2885 2.2162 8.5119462
135 1 11.610625 2.2162 8.94649
136 1 11.610625 0.0 9.7900162
137 1 9.2885 0.0 10.22456
138 1 9.2885 2.2162 11.0680862
139 1 11.610625 2.2162 11.50263
140 1 11.610625 0.0 12.3461562
141 1 9.2885 4.4324 0.0
142 1 9.2885 6.6486 0.8435262
143 1 11.610625 6.6486 1.27807
144 1 11.610625 4.4324 2.1215962
145 1 9.2885 4.4324 2.55614
146 1 9.2885 6.6486 3.3996662
147 1 11.610625 6.6486 3.83421
148 1 11.610625 4.4324 4.6777362
149 1 9.2885 4.4324 5.11228
150 1 9.2885 6.6486 5.9558062
151 1 11.610625 6.6486 6.39035
152 1 11.610625 4.4324 7.2338762
153 1 9.2885 4.4324 7.66842
154 1 9.2885 6.6486 8.5119462
155 1 11.610625 6.6486 8.94649
156 1 11.610625 4.4324 9.7900162
157 1 9.2885 4.4324 10.22456
158 1 9.2885 6.6486 11.0680862
159 1 11.610625 6.6486 11.50263
160 1 11.610625 4.4324 12.3461562
161 1 9.2885 8.8648 0.0
162 1 9.2885 11.081 0.8435262
163 1 11.610625 11.081 1.27807
164 1 11.610625 8.8648 2.1215962
165 1 9.2885 8.8648 2.55614
166 1 9.2885 11.081 3.3996662
167 1 11.610625 11.081 3.83421
168 1 11.610625 8.8648 4.6777362
169 1 9.2885 8.8648 5.11228
170 1 9.2885 11.081 5.9558062
171 1 11.610625 11.081 6.39035
172 1 11.610625 8.8648 7.2338762
173 1 9.2885 8.8648 7.66842
174 1 9.2885 11.081 8.5119462
175 1 11.610625 11.081 8.94649
176 1 11.610625 8.8648 9.7900162
177 1 9.2885 8.8648 10.22456
178 1 9.2885 11.081 11.0680862
179 1 11.610625 11.081 11.50263
180 1 11.610625 8.8648 12.3461562
