# LAMMPS data file written by OVITO Basic 3.10.6

288 atoms
1 atom types

0.0 15.99346506 xlo xhi
0.0 13.8507470332 ylo yhi
0.0 17.327 zlo zhi
-7.9967325281 0.0 0.0 xy xz yz

Masses

1 28.0855  # Si

Atoms  # atomic

1 1 1.3327887553 2.3084578389 0.0
2 1 -4.4408920985e-16 0.0 4.33175
3 1 2.1277424267e-10 1.5389718926 2.165875
4 1 1.3327887551 0.7694859463 6.497625
5 1 1.3327887553 2.3084578389 8.6635
6 1 -4.4408920985e-16 0.0 12.99525
7 1 2.1277424267e-10 1.5389718926 10.829375
8 1 1.3327887551 0.7694859463 15.161125
9 1 6.3832361619e-10 4.6169156777 0.0
10 1 -1.3327887547 2.3084578389 4.33175
11 1 -1.3327887545 3.8474297314 2.165875
12 1 4.2554892943e-10 3.0779437852 6.497625
13 1 6.3832361619e-10 4.6169156777 8.6635
14 1 -1.3327887547 2.3084578389 12.99525
15 1 -1.3327887545 3.8474297314 10.829375
16 1 4.2554892943e-10 3.0779437852 15.161125
17 1 -1.332788754 6.9253735166 0.0
18 1 -2.6655775094 4.6169156777 4.33175
19 1 -2.6655775091 6.1558875703 2.165875
20 1 -1.3327887543 5.386401624 6.497625
21 1 -1.332788754 6.9253735166 8.6635
22 1 -2.6655775094 4.6169156777 12.99525
23 1 -2.6655775091 6.1558875703 10.829375
24 1 -1.3327887543 5.386401624 15.161125
25 1 -2.6655775087 9.2338313555 0.0
26 1 -3.998366264 6.9253735166 4.33175
27 1 -3.9983662638 8.4643454092 2.165875
28 1 -2.6655775089 7.6948594629 6.497625
29 1 -2.6655775087 9.2338313555 8.6635
30 1 -3.998366264 6.9253735166 12.99525
31 1 -3.9983662638 8.4643454092 10.829375
32 1 -2.6655775089 7.6948594629 15.161125
33 1 -3.9983662634 11.5422891943 0.0
34 1 -5.3311550187 9.2338313555 4.33175
35 1 -5.3311550185 10.772803248 2.165875
36 1 -3.9983662636 10.0033173017 6.497625
37 1 -3.9983662634 11.5422891943 8.6635
38 1 -5.3311550187 9.2338313555 12.99525
39 1 -5.3311550185 10.772803248 10.829375
40 1 -3.9983662636 10.0033173017 15.161125
41 1 -5.3311550181 13.8507470332 0.0
42 1 -6.6639437734 11.5422891943 4.33175
43 1 -6.6639437732 13.0812610869 2.165875
44 1 -5.3311550183 12.3117751406 6.497625
45 1 -5.3311550181 13.8507470332 8.6635
46 1 -6.6639437734 11.5422891943 12.99525
47 1 -6.6639437732 13.0812610869 10.829375
48 1 -5.3311550183 12.3117751406 15.161125
49 1 3.9983662653 2.3084578389 0.0
50 1 2.66557751 0.0 4.33175
51 1 2.6655775102 1.5389718926 2.165875
52 1 3.9983662651 0.7694859463 6.497625
53 1 3.9983662653 2.3084578389 8.6635
54 1 2.66557751 0.0 12.99525
55 1 2.6655775102 1.5389718926 10.829375
56 1 3.9983662651 0.7694859463 15.161125
57 1 2.6655775106 4.6169156777 0.0
58 1 1.3327887553 2.3084578389 4.33175
59 1 1.3327887555 3.8474297314 2.165875
60 1 2.6655775104 3.0779437852 6.497625
61 1 2.6655775106 4.6169156777 8.6635
62 1 1.3327887553 2.3084578389 12.99525
63 1 1.3327887555 3.8474297314 10.829375
64 1 2.6655775104 3.0779437852 15.161125
65 1 1.332788756 6.9253735166 0.0
66 1 6.3832361619e-10 4.6169156777 4.33175
67 1 8.5109830295e-10 6.1558875703 2.165875
68 1 1.3327887557 5.386401624 6.497625
69 1 1.332788756 6.9253735166 8.6635
70 1 6.3832361619e-10 4.6169156777 12.99525
71 1 8.5109830295e-10 6.1558875703 10.829375
72 1 1.3327887557 5.386401624 15.161125
73 1 1.2766476765e-09 9.2338313555 0.0
74 1 -1.332788754 6.9253735166 4.33175
75 1 -1.3327887538 8.4643454092 2.165875
76 1 1.0638729897e-09 7.6948594629 6.497625
77 1 1.2766476765e-09 9.2338313555 8.6635
78 1 -1.332788754 6.9253735166 12.99525
79 1 -1.3327887538 8.4643454092 10.829375
80 1 1.0638729897e-09 7.6948594629 15.161125
81 1 -1.3327887534 11.5422891943 0.0
82 1 -2.6655775087 9.2338313555 4.33175
83 1 -2.6655775085 10.772803248 2.165875
84 1 -1.3327887536 10.0033173017 6.497625
85 1 -1.3327887534 11.5422891943 8.6635
86 1 -2.6655775087 9.2338313555 12.99525
87 1 -2.6655775085 10.772803248 10.829375
88 1 -1.3327887536 10.0033173017 15.161125
89 1 -2.6655775081 13.8507470332 0.0
90 1 -3.9983662634 11.5422891943 4.33175
91 1 -3.9983662632 13.0812610869 2.165875
92 1 -2.6655775083 12.3117751406 6.497625
93 1 -2.6655775081 13.8507470332 8.6635
94 1 -3.9983662634 11.5422891943 12.99525
95 1 -3.9983662632 13.0812610869 10.829375
96 1 -2.6655775083 12.3117751406 15.161125
97 1 6.6639437753 2.3084578389 0.0
98 1 5.33115502 0.0 4.33175
99 1 5.3311550202 1.5389718926 2.165875
100 1 6.6639437751 0.7694859463 6.497625
101 1 6.6639437753 2.3084578389 8.6635
102 1 5.33115502 0.0 12.99525
103 1 5.3311550202 1.5389718926 10.829375
104 1 6.6639437751 0.7694859463 15.161125
105 1 5.3311550206 4.6169156777 0.0
106 1 3.9983662653 2.3084578389 4.33175
107 1 3.9983662655 3.8474297314 2.165875
108 1 5.3311550204 3.0779437852 6.497625
109 1 5.3311550206 4.6169156777 8.6635
110 1 3.9983662653 2.3084578389 12.99525
111 1 3.9983662655 3.8474297314 10.829375
112 1 5.3311550204 3.0779437852 15.161125
113 1 3.998366266 6.9253735166 0.0
114 1 2.6655775106 4.6169156777 4.33175
115 1 2.6655775109 6.1558875703 2.165875
116 1 3.9983662657 5.386401624 6.497625
117 1 3.998366266 6.9253735166 8.6635
118 1 2.6655775106 4.6169156777 12.99525
119 1 2.6655775109 6.1558875703 10.829375
120 1 3.9983662657 5.386401624 15.161125
121 1 2.6655775113 9.2338313555 0.0
122 1 1.332788756 6.9253735166 4.33175
123 1 1.3327887562 8.4643454092 2.165875
124 1 2.6655775111 7.6948594629 6.497625
125 1 2.6655775113 9.2338313555 8.6635
126 1 1.332788756 6.9253735166 12.99525
127 1 1.3327887562 8.4643454092 10.829375
128 1 2.6655775111 7.6948594629 15.161125
129 1 1.3327887566 11.5422891943 0.0
130 1 1.2766476765e-09 9.2338313555 4.33175
131 1 1.4894219191e-09 10.772803248 2.165875
132 1 1.3327887564 10.0033173017 6.497625
133 1 1.3327887566 11.5422891943 8.6635
134 1 1.2766476765e-09 9.2338313555 12.99525
135 1 1.4894219191e-09 10.772803248 10.829375
136 1 1.3327887564 10.0033173017 15.161125
137 1 1.9149712926e-09 13.8507470332 0.0
138 1 -1.3327887534 11.5422891943 4.33175
139 1 -1.3327887532 13.0812610869 2.165875
140 1 1.70219705e-09 12.3117751406 6.497625
141 1 1.9149712926e-09 13.8507470332 8.6635
142 1 -1.3327887534 11.5422891943 12.99525
143 1 -1.3327887532 13.0812610869 10.829375
144 1 1.70219705e-09 12.3117751406 15.161125
145 1 9.3295212853 2.3084578389 0.0
146 1 7.99673253 0.0 4.33175
147 1 7.9967325302 1.5389718926 2.165875
148 1 9.3295212851 0.7694859463 6.497625
149 1 9.3295212853 2.3084578389 8.6635
150 1 7.99673253 0.0 12.99525
151 1 7.9967325302 1.5389718926 10.829375
152 1 9.3295212851 0.7694859463 15.161125
153 1 7.9967325306 4.6169156777 0.0
154 1 6.6639437753 2.3084578389 4.33175
155 1 6.6639437755 3.8474297314 2.165875
156 1 7.9967325304 3.0779437852 6.497625
157 1 7.9967325306 4.6169156777 8.6635
158 1 6.6639437753 2.3084578389 12.99525
159 1 6.6639437755 3.8474297314 10.829375
160 1 7.9967325304 3.0779437852 15.161125
161 1 6.663943776 6.9253735166 0.0
162 1 5.3311550206 4.6169156777 4.33175
163 1 5.3311550209 6.1558875703 2.165875
164 1 6.6639437757 5.386401624 6.497625
165 1 6.663943776 6.9253735166 8.6635
166 1 5.3311550206 4.6169156777 12.99525
167 1 5.3311550209 6.1558875703 10.829375
168 1 6.6639437757 5.386401624 15.161125
169 1 5.3311550213 9.2338313555 0.0
170 1 3.998366266 6.9253735166 4.33175
171 1 3.9983662662 8.4643454092 2.165875
172 1 5.3311550211 7.6948594629 6.497625
173 1 5.3311550213 9.2338313555 8.6635
174 1 3.998366266 6.9253735166 12.99525
175 1 3.9983662662 8.4643454092 10.829375
176 1 5.3311550211 7.6948594629 15.161125
177 1 3.9983662666 11.5422891943 0.0
178 1 2.6655775113 9.2338313555 4.33175
179 1 2.6655775115 10.772803248 2.165875
180 1 3.9983662664 10.0033173017 6.497625
181 1 3.9983662666 11.5422891943 8.6635
182 1 2.6655775113 9.2338313555 12.99525
183 1 2.6655775115 10.772803248 10.829375
184 1 3.9983662664 10.0033173017 15.161125
185 1 2.6655775119 13.8507470332 0.0
186 1 1.3327887566 11.5422891943 4.33175
187 1 1.3327887568 13.0812610869 2.165875
188 1 2.6655775117 12.3117751406 6.497625
189 1 2.6655775119 13.8507470332 8.6635
190 1 1.3327887566 11.5422891943 12.99525
191 1 1.3327887568 13.0812610869 10.829375
192 1 2.6655775117 12.3117751406 15.161125
193 1 11.9950987953 2.3084578389 0.0
194 1 10.66231004 0.0 4.33175
195 1 10.6623100402 1.5389718926 2.165875
196 1 11.9950987951 0.7694859463 6.497625
197 1 11.9950987953 2.3084578389 8.6635
198 1 10.66231004 0.0 12.99525
199 1 10.6623100402 1.5389718926 10.829375
200 1 11.9950987951 0.7694859463 15.161125
201 1 10.6623100406 4.6169156777 0.0
202 1 9.3295212853 2.3084578389 4.33175
203 1 9.3295212855 3.8474297314 2.165875
204 1 10.6623100404 3.0779437852 6.497625
205 1 10.6623100406 4.6169156777 8.6635
206 1 9.3295212853 2.3084578389 12.99525
207 1 9.3295212855 3.8474297314 10.829375
208 1 10.6623100404 3.0779437852 15.161125
209 1 9.329521286 6.9253735166 0.0
210 1 7.9967325306 4.6169156777 4.33175
211 1 7.9967325309 6.1558875703 2.165875
212 1 9.3295212857 5.386401624 6.497625
213 1 9.329521286 6.9253735166 8.6635
214 1 7.9967325306 4.6169156777 12.99525
215 1 7.9967325309 6.1558875703 10.829375
216 1 9.3295212857 5.386401624 15.161125
217 1 7.9967325313 9.2338313555 0.0
218 1 6.663943776 6.9253735166 4.33175
219 1 6.6639437762 8.4643454092 2.165875
220 1 7.9967325311 7.6948594629 6.497625
221 1 7.9967325313 9.2338313555 8.6635
222 1 6.663943776 6.9253735166 12.99525
223 1 6.6639437762 8.4643454092 10.829375
224 1 7.9967325311 7.6948594629 15.161125
225 1 6.6639437766 11.5422891943 0.0
226 1 5.3311550213 9.2338313555 4.33175
227 1 5.3311550215 10.772803248 2.165875
228 1 6.6639437764 10.0033173017 6.497625
229 1 6.6639437766 11.5422891943 8.6635
230 1 5.3311550213 9.2338313555 12.99525
231 1 5.3311550215 10.772803248 10.829375
232 1 6.6639437764 10.0033173017 15.161125
233 1 5.3311550219 13.8507470332 0.0
234 1 3.9983662666 11.5422891943 4.33175
235 1 3.9983662668 13.0812610869 2.165875
236 1 5.3311550217 12.3117751406 6.497625
237 1 5.3311550219 13.8507470332 8.6635
238 1 3.9983662666 11.5422891943 12.99525
239 1 3.9983662668 13.0812610869 10.829375
240 1 5.3311550217 12.3117751406 15.161125
241 1 14.6606763053 2.3084578389 0.0
242 1 13.32788755 0.0 4.33175
243 1 13.3278875502 1.5389718926 2.165875
244 1 14.6606763051 0.7694859463 6.497625
245 1 14.6606763053 2.3084578389 8.6635
246 1 13.32788755 0.0 12.99525
247 1 13.3278875502 1.5389718926 10.829375
248 1 14.6606763051 0.7694859463 15.161125
249 1 13.3278875506 4.6169156777 0.0
250 1 11.9950987953 2.3084578389 4.33175
251 1 11.9950987955 3.8474297314 2.165875
252 1 13.3278875504 3.0779437852 6.497625
253 1 13.3278875506 4.6169156777 8.6635
254 1 11.9950987953 2.3084578389 12.99525
255 1 11.9950987955 3.8474297314 10.829375
256 1 13.3278875504 3.0779437852 15.161125
257 1 11.995098796 6.9253735166 0.0
258 1 10.6623100406 4.6169156777 4.33175
259 1 10.6623100409 6.1558875703 2.165875
260 1 11.9950987957 5.386401624 6.497625
261 1 11.995098796 6.9253735166 8.6635
262 1 10.6623100406 4.6169156777 12.99525
263 1 10.6623100409 6.1558875703 10.829375
264 1 11.9950987957 5.386401624 15.161125
265 1 10.6623100413 9.2338313555 0.0
266 1 9.329521286 6.9253735166 4.33175
267 1 9.3295212862 8.4643454092 2.165875
268 1 10.6623100411 7.6948594629 6.497625
269 1 10.6623100413 9.2338313555 8.6635
270 1 9.329521286 6.9253735166 12.99525
271 1 9.3295212862 8.4643454092 10.829375
272 1 10.6623100411 7.6948594629 15.161125
273 1 9.3295212866 11.5422891943 0.0
274 1 7.9967325313 9.2338313555 4.33175
275 1 7.9967325315 10.772803248 2.165875
276 1 9.3295212864 10.0033173017 6.497625
277 1 9.3295212866 11.5422891943 8.6635
278 1 7.9967325313 9.2338313555 12.99525
279 1 7.9967325315 10.772803248 10.829375
280 1 9.3295212864 10.0033173017 15.161125
281 1 7.9967325319 13.8507470332 0.0
282 1 6.6639437766 11.5422891943 4.33175
283 1 6.6639437768 13.0812610869 2.165875
284 1 7.9967325317 12.3117751406 6.497625
285 1 7.9967325319 13.8507470332 8.6635
286 1 6.6639437766 11.5422891943 12.99525
287 1 6.6639437768 13.0812610869 10.829375
288 1 7.9967325317 12.3117751406 15.161125
