LAMMPS data file generated from POSCAR

180 atoms
1 atom types

0.0 13.477954015421 xlo xhi
0.0 13.477954015421 ylo yhi
0.0 12.591708863835 zlo zhi
0.0 0.0 0.0 xy xz yz

Masses

1 28.0855

Atoms

1 1 0.000000 2.246326 0.629585
2 1 0.000000 0.000000 1.259171
3 1 2.246326 0.000000 1.888756
4 1 2.246326 2.246326 0.000000
5 1 0.000000 2.246326 3.147927
6 1 0.000000 0.000000 3.777513
7 1 2.246326 0.000000 4.407098
8 1 2.246326 2.246326 2.518342
9 1 0.000000 2.246326 5.666269
10 1 0.000000 0.000000 6.295854
11 1 2.246326 0.000000 6.925440
12 1 2.246326 2.246326 5.036684
13 1 0.000000 2.246326 8.184611
14 1 0.000000 0.000000 8.814196
15 1 2.246326 0.000000 9.443782
16 1 2.246326 2.246326 7.555025
17 1 0.000000 2.246326 10.702953
18 1 0.000000 0.000000 11.332538
19 1 2.246326 0.000000 11.962123
20 1 2.246326 2.246326 10.073367
21 1 0.000000 6.738977 0.629585
22 1 0.000000 4.492651 1.259171
23 1 2.246326 4.492651 1.888756
24 1 2.246326 6.738977 0.000000
25 1 0.000000 6.738977 3.147927
26 1 0.000000 4.492651 3.777513
27 1 2.246326 4.492651 4.407098
28 1 2.246326 6.738977 2.518342
29 1 0.000000 6.738977 5.666269
30 1 0.000000 4.492651 6.295854
31 1 2.246326 4.492651 6.925440
32 1 2.246326 6.738977 5.036684
33 1 0.000000 6.738977 8.184611
34 1 0.000000 4.492651 8.814196
35 1 2.246326 4.492651 9.443782
36 1 2.246326 6.738977 7.555025
37 1 0.000000 6.738977 10.702953
38 1 0.000000 4.492651 11.332538
39 1 2.246326 4.492651 11.962123
40 1 2.246326 6.738977 10.073367
41 1 0.000000 11.231628 0.629585
42 1 0.000000 8.985303 1.259171
43 1 2.246326 8.985303 1.888756
44 1 2.246326 11.231628 0.000000
45 1 0.000000 11.231628 3.147927
46 1 0.000000 8.985303 3.777513
47 1 2.246326 8.985303 4.407098
48 1 2.246326 11.231628 2.518342
49 1 0.000000 11.231628 5.666269
50 1 0.000000 8.985303 6.295854
51 1 2.246326 8.985303 6.925440
52 1 2.246326 11.231628 5.036684
53 1 0.000000 11.231628 8.184611
54 1 0.000000 8.985303 8.814196
55 1 2.246326 8.985303 9.443782
56 1 2.246326 11.231628 7.555025
57 1 0.000000 11.231628 10.702953
58 1 0.000000 8.985303 11.332538
59 1 2.246326 8.985303 11.962123
60 1 2.246326 11.231628 10.073367
61 1 4.492651 2.246326 0.629585
62 1 4.492651 0.000000 1.259171
63 1 6.738977 0.000000 1.888756
64 1 6.738977 2.246326 0.000000
65 1 4.492651 2.246326 3.147927
66 1 4.492651 0.000000 3.777513
67 1 6.738977 0.000000 4.407098
68 1 6.738977 2.246326 2.518342
69 1 4.492651 2.246326 5.666269
70 1 4.492651 0.000000 6.295854
71 1 6.738977 0.000000 6.925440
72 1 6.738977 2.246326 5.036684
73 1 4.492651 2.246326 8.184611
74 1 4.492651 0.000000 8.814196
75 1 6.738977 0.000000 9.443782
76 1 6.738977 2.246326 7.555025
77 1 4.492651 2.246326 10.702953
78 1 4.492651 0.000000 11.332538
79 1 6.738977 0.000000 11.962123
80 1 6.738977 2.246326 10.073367
81 1 4.492651 6.738977 0.629585
82 1 4.492651 4.492651 1.259171
83 1 6.738977 4.492651 1.888756
84 1 6.738977 6.738977 0.000000
85 1 4.492651 6.738977 3.147927
86 1 4.492651 4.492651 3.777513
87 1 6.738977 4.492651 4.407098
88 1 6.738977 6.738977 2.518342
89 1 4.492651 6.738977 5.666269
90 1 4.492651 4.492651 6.295854
91 1 6.738977 4.492651 6.925440
92 1 6.738977 6.738977 5.036684
93 1 4.492651 6.738977 8.184611
94 1 4.492651 4.492651 8.814196
95 1 6.738977 4.492651 9.443782
96 1 6.738977 6.738977 7.555025
97 1 4.492651 6.738977 10.702953
98 1 4.492651 4.492651 11.332538
99 1 6.738977 4.492651 11.962123
100 1 6.738977 6.738977 10.073367
101 1 4.492651 11.231628 0.629585
102 1 4.492651 8.985303 1.259171
103 1 6.738977 8.985303 1.888756
104 1 6.738977 11.231628 0.000000
105 1 4.492651 11.231628 3.147927
106 1 4.492651 8.985303 3.777513
107 1 6.738977 8.985303 4.407098
108 1 6.738977 11.231628 2.518342
109 1 4.492651 11.231628 5.666269
110 1 4.492651 8.985303 6.295854
111 1 6.738977 8.985303 6.925440
112 1 6.738977 11.231628 5.036684
113 1 4.492651 11.231628 8.184611
114 1 4.492651 8.985303 8.814196
115 1 6.738977 8.985303 9.443782
116 1 6.738977 11.231628 7.555025
117 1 4.492651 11.231628 10.702953
118 1 4.492651 8.985303 11.332538
119 1 6.738977 8.985303 11.962123
120 1 6.738977 11.231628 10.073367
121 1 8.985303 2.246326 0.629585
122 1 8.985303 0.000000 1.259171
123 1 11.231628 0.000000 1.888756
124 1 11.231628 2.246326 0.000000
125 1 8.985303 2.246326 3.147927
126 1 8.985303 0.000000 3.777513
127 1 11.231628 0.000000 4.407098
128 1 11.231628 2.246326 2.518342
129 1 8.985303 2.246326 5.666269
130 1 8.985303 0.000000 6.295854
131 1 11.231628 0.000000 6.925440
132 1 11.231628 2.246326 5.036684
133 1 8.985303 2.246326 8.184611
134 1 8.985303 0.000000 8.814196
135 1 11.231628 0.000000 9.443782
136 1 11.231628 2.246326 7.555025
137 1 8.985303 2.246326 10.702953
138 1 8.985303 0.000000 11.332538
139 1 11.231628 0.000000 11.962123
140 1 11.231628 2.246326 10.073367
141 1 8.985303 6.738977 0.629585
142 1 8.985303 4.492651 1.259171
143 1 11.231628 4.492651 1.888756
144 1 11.231628 6.738977 0.000000
145 1 8.985303 6.738977 3.147927
146 1 8.985303 4.492651 3.777513
147 1 11.231628 4.492651 4.407098
148 1 11.231628 6.738977 2.518342
149 1 8.985303 6.738977 5.666269
150 1 8.985303 4.492651 6.295854
151 1 11.231628 4.492651 6.925440
152 1 11.231628 6.738977 5.036684
153 1 8.985303 6.738977 8.184611
154 1 8.985303 4.492651 8.814196
155 1 11.231628 4.492651 9.443782
156 1 11.231628 6.738977 7.555025
157 1 8.985303 6.738977 10.702953
158 1 8.985303 4.492651 11.332538
159 1 11.231628 4.492651 11.962123
160 1 11.231628 6.738977 10.073367
161 1 8.985303 11.231628 0.629585
162 1 8.985303 8.985303 1.259171
163 1 11.231628 8.985303 1.888756
164 1 11.231628 11.231628 0.000000
165 1 8.985303 11.231628 3.147927
166 1 8.985303 8.985303 3.777513
167 1 11.231628 8.985303 4.407098
168 1 11.231628 11.231628 2.518342
169 1 8.985303 11.231628 5.666269
170 1 8.985303 8.985303 6.295854
171 1 11.231628 8.985303 6.925440
172 1 11.231628 11.231628 5.036684
173 1 8.985303 11.231628 8.184611
174 1 8.985303 8.985303 8.814196
175 1 11.231628 8.985303 9.443782
176 1 11.231628 11.231628 7.555025
177 1 8.985303 11.231628 10.702953
178 1 8.985303 8.985303 11.332538
179 1 11.231628 8.985303 11.962123
180 1 11.231628 11.231628 10.073367
