LAMMPS data file generated from POSCAR

256 atoms
1 atom types

0.0 14.480552667617 xlo xhi
0.0 14.480552667617 ylo yhi
0.0 14.480552667617 zlo zhi
0.0 0.0 0.0 xy xz yz

Masses

1 28.0855

Atoms

1 1 0.000000 0.000000 0.000000
2 1 0.000000 1.810069 1.810069
3 1 1.810069 0.000000 1.810069
4 1 1.810069 1.810069 0.000000
5 1 0.000000 0.000000 3.620138
6 1 0.000000 1.810069 5.430207
7 1 1.810069 0.000000 5.430207
8 1 1.810069 1.810069 3.620138
9 1 0.000000 0.000000 7.240276
10 1 0.000000 1.810069 9.050345
11 1 1.810069 0.000000 9.050345
12 1 1.810069 1.810069 7.240276
13 1 0.000000 0.000000 10.860415
14 1 0.000000 1.810069 12.670484
15 1 1.810069 0.000000 12.670484
16 1 1.810069 1.810069 10.860415
17 1 0.000000 3.620138 0.000000
18 1 0.000000 5.430207 1.810069
19 1 1.810069 3.620138 1.810069
20 1 1.810069 5.430207 0.000000
21 1 0.000000 3.620138 3.620138
22 1 0.000000 5.430207 5.430207
23 1 1.810069 3.620138 5.430207
24 1 1.810069 5.430207 3.620138
25 1 0.000000 3.620138 7.240276
26 1 0.000000 5.430207 9.050345
27 1 1.810069 3.620138 9.050345
28 1 1.810069 5.430207 7.240276
29 1 0.000000 3.620138 10.860415
30 1 0.000000 5.430207 12.670484
31 1 1.810069 3.620138 12.670484
32 1 1.810069 5.430207 10.860415
33 1 0.000000 7.240276 0.000000
34 1 0.000000 9.050345 1.810069
35 1 1.810069 7.240276 1.810069
36 1 1.810069 9.050345 0.000000
37 1 0.000000 7.240276 3.620138
38 1 0.000000 9.050345 5.430207
39 1 1.810069 7.240276 5.430207
40 1 1.810069 9.050345 3.620138
41 1 0.000000 7.240276 7.240276
42 1 0.000000 9.050345 9.050345
43 1 1.810069 7.240276 9.050345
44 1 1.810069 9.050345 7.240276
45 1 0.000000 7.240276 10.860415
46 1 0.000000 9.050345 12.670484
47 1 1.810069 7.240276 12.670484
48 1 1.810069 9.050345 10.860415
49 1 0.000000 10.860415 0.000000
50 1 0.000000 12.670484 1.810069
51 1 1.810069 10.860415 1.810069
52 1 1.810069 12.670484 0.000000
53 1 0.000000 10.860415 3.620138
54 1 0.000000 12.670484 5.430207
55 1 1.810069 10.860415 5.430207
56 1 1.810069 12.670484 3.620138
57 1 0.000000 10.860415 7.240276
58 1 0.000000 12.670484 9.050345
59 1 1.810069 10.860415 9.050345
60 1 1.810069 12.670484 7.240276
61 1 0.000000 10.860415 10.860415
62 1 0.000000 12.670484 12.670484
63 1 1.810069 10.860415 12.670484
64 1 1.810069 12.670484 10.860415
65 1 3.620138 0.000000 0.000000
66 1 3.620138 1.810069 1.810069
67 1 5.430207 0.000000 1.810069
68 1 5.430207 1.810069 0.000000
69 1 3.620138 0.000000 3.620138
70 1 3.620138 1.810069 5.430207
71 1 5.430207 0.000000 5.430207
72 1 5.430207 1.810069 3.620138
73 1 3.620138 0.000000 7.240276
74 1 3.620138 1.810069 9.050345
75 1 5.430207 0.000000 9.050345
76 1 5.430207 1.810069 7.240276
77 1 3.620138 0.000000 10.860415
78 1 3.620138 1.810069 12.670484
79 1 5.430207 0.000000 12.670484
80 1 5.430207 1.810069 10.860415
81 1 3.620138 3.620138 0.000000
82 1 3.620138 5.430207 1.810069
83 1 5.430207 3.620138 1.810069
84 1 5.430207 5.430207 0.000000
85 1 3.620138 3.620138 3.620138
86 1 3.620138 5.430207 5.430207
87 1 5.430207 3.620138 5.430207
88 1 5.430207 5.430207 3.620138
89 1 3.620138 3.620138 7.240276
90 1 3.620138 5.430207 9.050345
91 1 5.430207 3.620138 9.050345
92 1 5.430207 5.430207 7.240276
93 1 3.620138 3.620138 10.860415
94 1 3.620138 5.430207 12.670484
95 1 5.430207 3.620138 12.670484
96 1 5.430207 5.430207 10.860415
97 1 3.620138 7.240276 0.000000
98 1 3.620138 9.050345 1.810069
99 1 5.430207 7.240276 1.810069
100 1 5.430207 9.050345 0.000000
101 1 3.620138 7.240276 3.620138
102 1 3.620138 9.050345 5.430207
103 1 5.430207 7.240276 5.430207
104 1 5.430207 9.050345 3.620138
105 1 3.620138 7.240276 7.240276
106 1 3.620138 9.050345 9.050345
107 1 5.430207 7.240276 9.050345
108 1 5.430207 9.050345 7.240276
109 1 3.620138 7.240276 10.860415
110 1 3.620138 9.050345 12.670484
111 1 5.430207 7.240276 12.670484
112 1 5.430207 9.050345 10.860415
113 1 3.620138 10.860415 0.000000
114 1 3.620138 12.670484 1.810069
115 1 5.430207 10.860415 1.810069
116 1 5.430207 12.670484 0.000000
117 1 3.620138 10.860415 3.620138
118 1 3.620138 12.670484 5.430207
119 1 5.430207 10.860415 5.430207
120 1 5.430207 12.670484 3.620138
121 1 3.620138 10.860415 7.240276
122 1 3.620138 12.670484 9.050345
123 1 5.430207 10.860415 9.050345
124 1 5.430207 12.670484 7.240276
125 1 3.620138 10.860415 10.860415
126 1 3.620138 12.670484 12.670484
127 1 5.430207 10.860415 12.670484
128 1 5.430207 12.670484 10.860415
129 1 7.240276 0.000000 0.000000
130 1 7.240276 1.810069 1.810069
131 1 9.050345 0.000000 1.810069
132 1 9.050345 1.810069 0.000000
133 1 7.240276 0.000000 3.620138
134 1 7.240276 1.810069 5.430207
135 1 9.050345 0.000000 5.430207
136 1 9.050345 1.810069 3.620138
137 1 7.240276 0.000000 7.240276
138 1 7.240276 1.810069 9.050345
139 1 9.050345 0.000000 9.050345
140 1 9.050345 1.810069 7.240276
141 1 7.240276 0.000000 10.860415
142 1 7.240276 1.810069 12.670484
143 1 9.050345 0.000000 12.670484
144 1 9.050345 1.810069 10.860415
145 1 7.240276 3.620138 0.000000
146 1 7.240276 5.430207 1.810069
147 1 9.050345 3.620138 1.810069
148 1 9.050345 5.430207 0.000000
149 1 7.240276 3.620138 3.620138
150 1 7.240276 5.430207 5.430207
151 1 9.050345 3.620138 5.430207
152 1 9.050345 5.430207 3.620138
153 1 7.240276 3.620138 7.240276
154 1 7.240276 5.430207 9.050345
155 1 9.050345 3.620138 9.050345
156 1 9.050345 5.430207 7.240276
157 1 7.240276 3.620138 10.860415
158 1 7.240276 5.430207 12.670484
159 1 9.050345 3.620138 12.670484
160 1 9.050345 5.430207 10.860415
161 1 7.240276 7.240276 0.000000
162 1 7.240276 9.050345 1.810069
163 1 9.050345 7.240276 1.810069
164 1 9.050345 9.050345 0.000000
165 1 7.240276 7.240276 3.620138
166 1 7.240276 9.050345 5.430207
167 1 9.050345 7.240276 5.430207
168 1 9.050345 9.050345 3.620138
169 1 7.240276 7.240276 7.240276
170 1 7.240276 9.050345 9.050345
171 1 9.050345 7.240276 9.050345
172 1 9.050345 9.050345 7.240276
173 1 7.240276 7.240276 10.860415
174 1 7.240276 9.050345 12.670484
175 1 9.050345 7.240276 12.670484
176 1 9.050345 9.050345 10.860415
177 1 7.240276 10.860415 0.000000
178 1 7.240276 12.670484 1.810069
179 1 9.050345 10.860415 1.810069
180 1 9.050345 12.670484 0.000000
181 1 7.240276 10.860415 3.620138
182 1 7.240276 12.670484 5.430207
183 1 9.050345 10.860415 5.430207
184 1 9.050345 12.670484 3.620138
185 1 7.240276 10.860415 7.240276
186 1 7.240276 12.670484 9.050345
187 1 9.050345 10.860415 9.050345
188 1 9.050345 12.670484 7.240276
189 1 7.240276 10.860415 10.860415
190 1 7.240276 12.670484 12.670484
191 1 9.050345 10.860415 12.670484
192 1 9.050345 12.670484 10.860415
193 1 10.860415 0.000000 0.000000
194 1 10.860415 1.810069 1.810069
195 1 12.670484 0.000000 1.810069
196 1 12.670484 1.810069 0.000000
197 1 10.860415 0.000000 3.620138
198 1 10.860415 1.810069 5.430207
199 1 12.670484 0.000000 5.430207
200 1 12.670484 1.810069 3.620138
201 1 10.860415 0.000000 7.240276
202 1 10.860415 1.810069 9.050345
203 1 12.670484 0.000000 9.050345
204 1 12.670484 1.810069 7.240276
205 1 10.860415 0.000000 10.860415
206 1 10.860415 1.810069 12.670484
207 1 12.670484 0.000000 12.670484
208 1 12.670484 1.810069 10.860415
209 1 10.860415 3.620138 0.000000
210 1 10.860415 5.430207 1.810069
211 1 12.670484 3.620138 1.810069
212 1 12.670484 5.430207 0.000000
213 1 10.860415 3.620138 3.620138
214 1 10.860415 5.430207 5.430207
215 1 12.670484 3.620138 5.430207
216 1 12.670484 5.430207 3.620138
217 1 10.860415 3.620138 7.240276
218 1 10.860415 5.430207 9.050345
219 1 12.670484 3.620138 9.050345
220 1 12.670484 5.430207 7.240276
221 1 10.860415 3.620138 10.860415
222 1 10.860415 5.430207 12.670484
223 1 12.670484 3.620138 12.670484
224 1 12.670484 5.430207 10.860415
225 1 10.860415 7.240276 0.000000
226 1 10.860415 9.050345 1.810069
227 1 12.670484 7.240276 1.810069
228 1 12.670484 9.050345 0.000000
229 1 10.860415 7.240276 3.620138
230 1 10.860415 9.050345 5.430207
231 1 12.670484 7.240276 5.430207
232 1 12.670484 9.050345 3.620138
233 1 10.860415 7.240276 7.240276
234 1 10.860415 9.050345 9.050345
235 1 12.670484 7.240276 9.050345
236 1 12.670484 9.050345 7.240276
237 1 10.860415 7.240276 10.860415
238 1 10.860415 9.050345 12.670484
239 1 12.670484 7.240276 12.670484
240 1 12.670484 9.050345 10.860415
241 1 10.860415 10.860415 0.000000
242 1 10.860415 12.670484 1.810069
243 1 12.670484 10.860415 1.810069
244 1 12.670484 12.670484 0.000000
245 1 10.860415 10.860415 3.620138
246 1 10.860415 12.670484 5.430207
247 1 12.670484 10.860415 5.430207
248 1 12.670484 12.670484 3.620138
249 1 10.860415 10.860415 7.240276
250 1 10.860415 12.670484 9.050345
251 1 12.670484 10.860415 9.050345
252 1 12.670484 12.670484 7.240276
253 1 10.860415 10.860415 10.860415
254 1 10.860415 12.670484 12.670484
255 1 12.670484 10.860415 12.670484
256 1 12.670484 12.670484 10.860415
