LAMMPS data file generated from POSCAR

216 atoms
1 atom types

0.0 15.469939097677 xlo xhi
0.0 15.469939097677 ylo yhi
0.0 15.469939097677 zlo zhi
0.0 0.0 0.0 xy xz yz

Masses

1 28.0855

Atoms

1 1 3.867485 3.867485 1.289162
2 1 0.000000 2.578323 2.578323
3 1 3.867485 1.289162 3.867485
4 1 0.000000 0.000000 0.000000
5 1 1.289162 3.867485 3.867485
6 1 2.578323 2.578323 0.000000
7 1 1.289162 1.289162 1.289162
8 1 2.578323 0.000000 2.578323
9 1 3.867485 3.867485 6.445808
10 1 0.000000 2.578323 7.734970
11 1 3.867485 1.289162 9.024131
12 1 0.000000 0.000000 5.156646
13 1 1.289162 3.867485 9.024131
14 1 2.578323 2.578323 5.156646
15 1 1.289162 1.289162 6.445808
16 1 2.578323 0.000000 7.734970
17 1 3.867485 3.867485 11.602454
18 1 0.000000 2.578323 12.891616
19 1 3.867485 1.289162 14.180778
20 1 0.000000 0.000000 10.313293
21 1 1.289162 3.867485 14.180778
22 1 2.578323 2.578323 10.313293
23 1 1.289162 1.289162 11.602454
24 1 2.578323 0.000000 12.891616
25 1 3.867485 9.024131 1.289162
26 1 0.000000 7.734970 2.578323
27 1 3.867485 6.445808 3.867485
28 1 0.000000 5.156646 0.000000
29 1 1.289162 9.024131 3.867485
30 1 2.578323 7.734970 0.000000
31 1 1.289162 6.445808 1.289162
32 1 2.578323 5.156646 2.578323
33 1 3.867485 9.024131 6.445808
34 1 0.000000 7.734970 7.734970
35 1 3.867485 6.445808 9.024131
36 1 0.000000 5.156646 5.156646
37 1 1.289162 9.024131 9.024131
38 1 2.578323 7.734970 5.156646
39 1 1.289162 6.445808 6.445808
40 1 2.578323 5.156646 7.734970
41 1 3.867485 9.024131 11.602454
42 1 0.000000 7.734970 12.891616
43 1 3.867485 6.445808 14.180778
44 1 0.000000 5.156646 10.313293
45 1 1.289162 9.024131 14.180778
46 1 2.578323 7.734970 10.313293
47 1 1.289162 6.445808 11.602454
48 1 2.578323 5.156646 12.891616
49 1 3.867485 14.180778 1.289162
50 1 0.000000 12.891616 2.578323
51 1 3.867485 11.602454 3.867485
52 1 0.000000 10.313293 0.000000
53 1 1.289162 14.180778 3.867485
54 1 2.578323 12.891616 0.000000
55 1 1.289162 11.602454 1.289162
56 1 2.578323 10.313293 2.578323
57 1 3.867485 14.180778 6.445808
58 1 0.000000 12.891616 7.734970
59 1 3.867485 11.602454 9.024131
60 1 0.000000 10.313293 5.156646
61 1 1.289162 14.180778 9.024131
62 1 2.578323 12.891616 5.156646
63 1 1.289162 11.602454 6.445808
64 1 2.578323 10.313293 7.734970
65 1 3.867485 14.180778 11.602454
66 1 0.000000 12.891616 12.891616
67 1 3.867485 11.602454 14.180778
68 1 0.000000 10.313293 10.313293
69 1 1.289162 14.180778 14.180778
70 1 2.578323 12.891616 10.313293
71 1 1.289162 11.602454 11.602454
72 1 2.578323 10.313293 12.891616
73 1 9.024131 3.867485 1.289162
74 1 5.156646 2.578323 2.578323
75 1 9.024131 1.289162 3.867485
76 1 5.156646 0.000000 0.000000
77 1 6.445808 3.867485 3.867485
78 1 7.734970 2.578323 0.000000
79 1 6.445808 1.289162 1.289162
80 1 7.734970 0.000000 2.578323
81 1 9.024131 3.867485 6.445808
82 1 5.156646 2.578323 7.734970
83 1 9.024131 1.289162 9.024131
84 1 5.156646 0.000000 5.156646
85 1 6.445808 3.867485 9.024131
86 1 7.734970 2.578323 5.156646
87 1 6.445808 1.289162 6.445808
88 1 7.734970 0.000000 7.734970
89 1 9.024131 3.867485 11.602454
90 1 5.156646 2.578323 12.891616
91 1 9.024131 1.289162 14.180778
92 1 5.156646 0.000000 10.313293
93 1 6.445808 3.867485 14.180778
94 1 7.734970 2.578323 10.313293
95 1 6.445808 1.289162 11.602454
96 1 7.734970 0.000000 12.891616
97 1 9.024131 9.024131 1.289162
98 1 5.156646 7.734970 2.578323
99 1 9.024131 6.445808 3.867485
100 1 5.156646 5.156646 0.000000
101 1 6.445808 9.024131 3.867485
102 1 7.734970 7.734970 0.000000
103 1 6.445808 6.445808 1.289162
104 1 7.734970 5.156646 2.578323
105 1 9.024131 9.024131 6.445808
106 1 5.156646 7.734970 7.734970
107 1 9.024131 6.445808 9.024131
108 1 5.156646 5.156646 5.156646
109 1 6.445808 9.024131 9.024131
110 1 7.734970 7.734970 5.156646
111 1 6.445808 6.445808 6.445808
112 1 7.734970 5.156646 7.734970
113 1 9.024131 9.024131 11.602454
114 1 5.156646 7.734970 12.891616
115 1 9.024131 6.445808 14.180778
116 1 5.156646 5.156646 10.313293
117 1 6.445808 9.024131 14.180778
118 1 7.734970 7.734970 10.313293
119 1 6.445808 6.445808 11.602454
120 1 7.734970 5.156646 12.891616
121 1 9.024131 14.180778 1.289162
122 1 5.156646 12.891616 2.578323
123 1 9.024131 11.602454 3.867485
124 1 5.156646 10.313293 0.000000
125 1 6.445808 14.180778 3.867485
126 1 7.734970 12.891616 0.000000
127 1 6.445808 11.602454 1.289162
128 1 7.734970 10.313293 2.578323
129 1 9.024131 14.180778 6.445808
130 1 5.156646 12.891616 7.734970
131 1 9.024131 11.602454 9.024131
132 1 5.156646 10.313293 5.156646
133 1 6.445808 14.180778 9.024131
134 1 7.734970 12.891616 5.156646
135 1 6.445808 11.602454 6.445808
136 1 7.734970 10.313293 7.734970
137 1 9.024131 14.180778 11.602454
138 1 5.156646 12.891616 12.891616
139 1 9.024131 11.602454 14.180778
140 1 5.156646 10.313293 10.313293
141 1 6.445808 14.180778 14.180778
142 1 7.734970 12.891616 10.313293
143 1 6.445808 11.602454 11.602454
144 1 7.734970 10.313293 12.891616
145 1 14.180778 3.867485 1.289162
146 1 10.313293 2.578323 2.578323
147 1 14.180778 1.289162 3.867485
148 1 10.313293 0.000000 0.000000
149 1 11.602454 3.867485 3.867485
150 1 12.891616 2.578323 0.000000
151 1 11.602454 1.289162 1.289162
152 1 12.891616 0.000000 2.578323
153 1 14.180778 3.867485 6.445808
154 1 10.313293 2.578323 7.734970
155 1 14.180778 1.289162 9.024131
156 1 10.313293 0.000000 5.156646
157 1 11.602454 3.867485 9.024131
158 1 12.891616 2.578323 5.156646
159 1 11.602454 1.289162 6.445808
160 1 12.891616 0.000000 7.734970
161 1 14.180778 3.867485 11.602454
162 1 10.313293 2.578323 12.891616
163 1 14.180778 1.289162 14.180778
164 1 10.313293 0.000000 10.313293
165 1 11.602454 3.867485 14.180778
166 1 12.891616 2.578323 10.313293
167 1 11.602454 1.289162 11.602454
168 1 12.891616 0.000000 12.891616
169 1 14.180778 9.024131 1.289162
170 1 10.313293 7.734970 2.578323
171 1 14.180778 6.445808 3.867485
172 1 10.313293 5.156646 0.000000
173 1 11.602454 9.024131 3.867485
174 1 12.891616 7.734970 0.000000
175 1 11.602454 6.445808 1.289162
176 1 12.891616 5.156646 2.578323
177 1 14.180778 9.024131 6.445808
178 1 10.313293 7.734970 7.734970
179 1 14.180778 6.445808 9.024131
180 1 10.313293 5.156646 5.156646
181 1 11.602454 9.024131 9.024131
182 1 12.891616 7.734970 5.156646
183 1 11.602454 6.445808 6.445808
184 1 12.891616 5.156646 7.734970
185 1 14.180778 9.024131 11.602454
186 1 10.313293 7.734970 12.891616
187 1 14.180778 6.445808 14.180778
188 1 10.313293 5.156646 10.313293
189 1 11.602454 9.024131 14.180778
190 1 12.891616 7.734970 10.313293
191 1 11.602454 6.445808 11.602454
192 1 12.891616 5.156646 12.891616
193 1 14.180778 14.180778 1.289162
194 1 10.313293 12.891616 2.578323
195 1 14.180778 11.602454 3.867485
196 1 10.313293 10.313293 0.000000
197 1 11.602454 14.180778 3.867485
198 1 12.891616 12.891616 0.000000
199 1 11.602454 11.602454 1.289162
200 1 12.891616 10.313293 2.578323
201 1 14.180778 14.180778 6.445808
202 1 10.313293 12.891616 7.734970
203 1 14.180778 11.602454 9.024131
204 1 10.313293 10.313293 5.156646
205 1 11.602454 14.180778 9.024131
206 1 12.891616 12.891616 5.156646
207 1 11.602454 11.602454 6.445808
208 1 12.891616 10.313293 7.734970
209 1 14.180778 14.180778 11.602454
210 1 10.313293 12.891616 12.891616
211 1 14.180778 11.602454 14.180778
212 1 10.313293 10.313293 10.313293
213 1 11.602454 14.180778 14.180778
214 1 12.891616 12.891616 10.313293
215 1 11.602454 11.602454 11.602454
216 1 12.891616 10.313293 12.891616
