LAMMPS data file generated from POSCAR

216 atoms
1 atom types

0.0 14.894141880732 xlo xhi
0.0 12.898705236259 ylo yhi
0.0 14.017795093389 zlo zhi
-7.447070940408 0.0 0.0 xy xz yz

Masses

1 28.0855

Atoms

1 1 0.000000 0.000000 0.000000
2 1 0.000000 0.000000 2.336299
3 1 0.000000 0.000000 4.672598
4 1 0.000000 0.000000 7.008898
5 1 0.000000 0.000000 9.345197
6 1 0.000000 0.000000 11.681496
7 1 -1.241178 2.149784 0.000000
8 1 -1.241178 2.149784 2.336299
9 1 -1.241178 2.149784 4.672598
10 1 -1.241178 2.149784 7.008898
11 1 -1.241178 2.149784 9.345197
12 1 -1.241178 2.149784 11.681496
13 1 -2.482357 4.299568 0.000000
14 1 -2.482357 4.299568 2.336299
15 1 -2.482357 4.299568 4.672598
16 1 -2.482357 4.299568 7.008898
17 1 -2.482357 4.299568 9.345197
18 1 -2.482357 4.299568 11.681496
19 1 -3.723535 6.449353 0.000000
20 1 -3.723535 6.449353 2.336299
21 1 -3.723535 6.449353 4.672598
22 1 -3.723535 6.449353 7.008898
23 1 -3.723535 6.449353 9.345197
24 1 -3.723535 6.449353 11.681496
25 1 -4.964714 8.599137 0.000000
26 1 -4.964714 8.599137 2.336299
27 1 -4.964714 8.599137 4.672598
28 1 -4.964714 8.599137 7.008898
29 1 -4.964714 8.599137 9.345197
30 1 -4.964714 8.599137 11.681496
31 1 -6.205892 10.748921 0.000000
32 1 -6.205892 10.748921 2.336299
33 1 -6.205892 10.748921 4.672598
34 1 -6.205892 10.748921 7.008898
35 1 -6.205892 10.748921 9.345197
36 1 -6.205892 10.748921 11.681496
37 1 2.482357 0.000000 0.000000
38 1 2.482357 0.000000 2.336299
39 1 2.482357 0.000000 4.672598
40 1 2.482357 0.000000 7.008898
41 1 2.482357 0.000000 9.345197
42 1 2.482357 0.000000 11.681496
43 1 1.241178 2.149784 0.000000
44 1 1.241178 2.149784 2.336299
45 1 1.241178 2.149784 4.672598
46 1 1.241178 2.149784 7.008898
47 1 1.241178 2.149784 9.345197
48 1 1.241178 2.149784 11.681496
49 1 0.000000 4.299568 0.000000
50 1 0.000000 4.299568 2.336299
51 1 0.000000 4.299568 4.672598
52 1 0.000000 4.299568 7.008898
53 1 0.000000 4.299568 9.345197
54 1 0.000000 4.299568 11.681496
55 1 -1.241178 6.449353 0.000000
56 1 -1.241178 6.449353 2.336299
57 1 -1.241178 6.449353 4.672598
58 1 -1.241178 6.449353 7.008898
59 1 -1.241178 6.449353 9.345197
60 1 -1.241178 6.449353 11.681496
61 1 -2.482357 8.599137 0.000000
62 1 -2.482357 8.599137 2.336299
63 1 -2.482357 8.599137 4.672598
64 1 -2.482357 8.599137 7.008898
65 1 -2.482357 8.599137 9.345197
66 1 -2.482357 8.599137 11.681496
67 1 -3.723535 10.748921 0.000000
68 1 -3.723535 10.748921 2.336299
69 1 -3.723535 10.748921 4.672598
70 1 -3.723535 10.748921 7.008898
71 1 -3.723535 10.748921 9.345197
72 1 -3.723535 10.748921 11.681496
73 1 4.964714 0.000000 0.000000
74 1 4.964714 0.000000 2.336299
75 1 4.964714 0.000000 4.672598
76 1 4.964714 0.000000 7.008898
77 1 4.964714 0.000000 9.345197
78 1 4.964714 0.000000 11.681496
79 1 3.723535 2.149784 0.000000
80 1 3.723535 2.149784 2.336299
81 1 3.723535 2.149784 4.672598
82 1 3.723535 2.149784 7.008898
83 1 3.723535 2.149784 9.345197
84 1 3.723535 2.149784 11.681496
85 1 2.482357 4.299568 0.000000
86 1 2.482357 4.299568 2.336299
87 1 2.482357 4.299568 4.672598
88 1 2.482357 4.299568 7.008898
89 1 2.482357 4.299568 9.345197
90 1 2.482357 4.299568 11.681496
91 1 1.241178 6.449353 0.000000
92 1 1.241178 6.449353 2.336299
93 1 1.241178 6.449353 4.672598
94 1 1.241178 6.449353 7.008898
95 1 1.241178 6.449353 9.345197
96 1 1.241178 6.449353 11.681496
97 1 0.000000 8.599137 0.000000
98 1 0.000000 8.599137 2.336299
99 1 0.000000 8.599137 4.672598
100 1 0.000000 8.599137 7.008898
101 1 0.000000 8.599137 9.345197
102 1 0.000000 8.599137 11.681496
103 1 -1.241178 10.748921 0.000000
104 1 -1.241178 10.748921 2.336299
105 1 -1.241178 10.748921 4.672598
106 1 -1.241178 10.748921 7.008898
107 1 -1.241178 10.748921 9.345197
108 1 -1.241178 10.748921 11.681496
109 1 7.447071 0.000000 0.000000
110 1 7.447071 0.000000 2.336299
111 1 7.447071 0.000000 4.672598
112 1 7.447071 0.000000 7.008898
113 1 7.447071 0.000000 9.345197
114 1 7.447071 0.000000 11.681496
115 1 6.205892 2.149784 0.000000
116 1 6.205892 2.149784 2.336299
117 1 6.205892 2.149784 4.672598
118 1 6.205892 2.149784 7.008898
119 1 6.205892 2.149784 9.345197
120 1 6.205892 2.149784 11.681496
121 1 4.964714 4.299568 0.000000
122 1 4.964714 4.299568 2.336299
123 1 4.964714 4.299568 4.672598
124 1 4.964714 4.299568 7.008898
125 1 4.964714 4.299568 9.345197
126 1 4.964714 4.299568 11.681496
127 1 3.723535 6.449353 0.000000
128 1 3.723535 6.449353 2.336299
129 1 3.723535 6.449353 4.672598
130 1 3.723535 6.449353 7.008898
131 1 3.723535 6.449353 9.345197
132 1 3.723535 6.449353 11.681496
133 1 2.482357 8.599137 0.000000
134 1 2.482357 8.599137 2.336299
135 1 2.482357 8.599137 4.672598
136 1 2.482357 8.599137 7.008898
137 1 2.482357 8.599137 9.345197
138 1 2.482357 8.599137 11.681496
139 1 1.241178 10.748921 0.000000
140 1 1.241178 10.748921 2.336299
141 1 1.241178 10.748921 4.672598
142 1 1.241178 10.748921 7.008898
143 1 1.241178 10.748921 9.345197
144 1 1.241178 10.748921 11.681496
145 1 9.929428 -0.000000 0.000000
146 1 9.929428 -0.000000 2.336299
147 1 9.929428 -0.000000 4.672598
148 1 9.929428 -0.000000 7.008898
149 1 9.929428 -0.000000 9.345197
150 1 9.929428 -0.000000 11.681496
151 1 8.688249 2.149784 0.000000
152 1 8.688249 2.149784 2.336299
153 1 8.688249 2.149784 4.672598
154 1 8.688249 2.149784 7.008898
155 1 8.688249 2.149784 9.345197
156 1 8.688249 2.149784 11.681496
157 1 7.447071 4.299568 0.000000
158 1 7.447071 4.299568 2.336299
159 1 7.447071 4.299568 4.672598
160 1 7.447071 4.299568 7.008898
161 1 7.447071 4.299568 9.345197
162 1 7.447071 4.299568 11.681496
163 1 6.205892 6.449353 0.000000
164 1 6.205892 6.449353 2.336299
165 1 6.205892 6.449353 4.672598
166 1 6.205892 6.449353 7.008898
167 1 6.205892 6.449353 9.345197
168 1 6.205892 6.449353 11.681496
169 1 4.964714 8.599137 0.000000
170 1 4.964714 8.599137 2.336299
171 1 4.964714 8.599137 4.672598
172 1 4.964714 8.599137 7.008898
173 1 4.964714 8.599137 9.345197
174 1 4.964714 8.599137 11.681496
175 1 3.723535 10.748921 0.000000
176 1 3.723535 10.748921 2.336299
177 1 3.723535 10.748921 4.672598
178 1 3.723535 10.748921 7.008898
179 1 3.723535 10.748921 9.345197
180 1 3.723535 10.748921 11.681496
181 1 12.411785 0.000000 0.000000
182 1 12.411785 0.000000 2.336299
183 1 12.411785 0.000000 4.672598
184 1 12.411785 0.000000 7.008898
185 1 12.411785 0.000000 9.345197
186 1 12.411785 0.000000 11.681496
187 1 11.170606 2.149784 0.000000
188 1 11.170606 2.149784 2.336299
189 1 11.170606 2.149784 4.672598
190 1 11.170606 2.149784 7.008898
191 1 11.170606 2.149784 9.345197
192 1 11.170606 2.149784 11.681496
193 1 9.929428 4.299568 0.000000
194 1 9.929428 4.299568 2.336299
195 1 9.929428 4.299568 4.672598
196 1 9.929428 4.299568 7.008898
197 1 9.929428 4.299568 9.345197
198 1 9.929428 4.299568 11.681496
199 1 8.688249 6.449353 0.000000
200 1 8.688249 6.449353 2.336299
201 1 8.688249 6.449353 4.672598
202 1 8.688249 6.449353 7.008898
203 1 8.688249 6.449353 9.345197
204 1 8.688249 6.449353 11.681496
205 1 7.447071 8.599137 0.000000
206 1 7.447071 8.599137 2.336299
207 1 7.447071 8.599137 4.672598
208 1 7.447071 8.599137 7.008898
209 1 7.447071 8.599137 9.345197
210 1 7.447071 8.599137 11.681496
211 1 6.205892 10.748921 0.000000
212 1 6.205892 10.748921 2.336299
213 1 6.205892 10.748921 4.672598
214 1 6.205892 10.748921 7.008898
215 1 6.205892 10.748921 9.345197
216 1 6.205892 10.748921 11.681496
