LAMMPS data file generated from POSCAR

216 atoms
1 atom types

0.0 15.150101495282 xlo xhi
0.0 13.12037276483 ylo yhi
0.0 12.805937281077 zlo zhi
-7.575050747634 0.0 0.0 xy xz yz

Masses

1 28.0855

Atoms

1 1 -0.000000 1.457819 1.067161
2 1 1.262508 0.728910 3.201484
3 1 -0.000000 1.457819 5.335807
4 1 1.262508 0.728910 7.470130
5 1 -0.000000 1.457819 9.604453
6 1 1.262508 0.728910 11.738776
7 1 -1.262508 3.644548 1.067161
8 1 -0.000000 2.915638 3.201484
9 1 -1.262508 3.644548 5.335807
10 1 -0.000000 2.915638 7.470130
11 1 -1.262508 3.644548 9.604453
12 1 -0.000000 2.915638 11.738776
13 1 -2.525017 5.831277 1.067161
14 1 -1.262508 5.102367 3.201484
15 1 -2.525017 5.831277 5.335807
16 1 -1.262508 5.102367 7.470130
17 1 -2.525017 5.831277 9.604453
18 1 -1.262508 5.102367 11.738776
19 1 -3.787525 8.018006 1.067161
20 1 -2.525017 7.289096 3.201484
21 1 -3.787525 8.018006 5.335807
22 1 -2.525017 7.289096 7.470130
23 1 -3.787525 8.018006 9.604453
24 1 -2.525017 7.289096 11.738776
25 1 -5.050034 10.204734 1.067161
26 1 -3.787525 9.475825 3.201484
27 1 -5.050034 10.204734 5.335807
28 1 -3.787525 9.475825 7.470130
29 1 -5.050034 10.204734 9.604453
30 1 -3.787525 9.475825 11.738776
31 1 -6.312542 12.391463 1.067161
32 1 -5.050034 11.662554 3.201484
33 1 -6.312542 12.391463 5.335807
34 1 -5.050034 11.662554 7.470130
35 1 -6.312542 12.391463 9.604453
36 1 -5.050034 11.662554 11.738776
37 1 2.525017 1.457819 1.067161
38 1 3.787525 0.728910 3.201484
39 1 2.525017 1.457819 5.335807
40 1 3.787525 0.728910 7.470130
41 1 2.525017 1.457819 9.604453
42 1 3.787525 0.728910 11.738776
43 1 1.262508 3.644548 1.067161
44 1 2.525017 2.915638 3.201484
45 1 1.262508 3.644548 5.335807
46 1 2.525017 2.915638 7.470130
47 1 1.262508 3.644548 9.604453
48 1 2.525017 2.915638 11.738776
49 1 -0.000000 5.831277 1.067161
50 1 1.262508 5.102367 3.201484
51 1 -0.000000 5.831277 5.335807
52 1 1.262508 5.102367 7.470130
53 1 -0.000000 5.831277 9.604453
54 1 1.262508 5.102367 11.738776
55 1 -1.262508 8.018006 1.067161
56 1 0.000000 7.289096 3.201484
57 1 -1.262508 8.018006 5.335807
58 1 0.000000 7.289096 7.470130
59 1 -1.262508 8.018006 9.604453
60 1 0.000000 7.289096 11.738776
61 1 -2.525017 10.204734 1.067161
62 1 -1.262508 9.475825 3.201484
63 1 -2.525017 10.204734 5.335807
64 1 -1.262508 9.475825 7.470130
65 1 -2.525017 10.204734 9.604453
66 1 -1.262508 9.475825 11.738776
67 1 -3.787525 12.391463 1.067161
68 1 -2.525017 11.662554 3.201484
69 1 -3.787525 12.391463 5.335807
70 1 -2.525017 11.662554 7.470130
71 1 -3.787525 12.391463 9.604453
72 1 -2.525017 11.662554 11.738776
73 1 5.050034 1.457819 1.067161
74 1 6.312542 0.728910 3.201484
75 1 5.050034 1.457819 5.335807
76 1 6.312542 0.728910 7.470130
77 1 5.050034 1.457819 9.604453
78 1 6.312542 0.728910 11.738776
79 1 3.787525 3.644548 1.067161
80 1 5.050034 2.915638 3.201484
81 1 3.787525 3.644548 5.335807
82 1 5.050034 2.915638 7.470130
83 1 3.787525 3.644548 9.604453
84 1 5.050034 2.915638 11.738776
85 1 2.525017 5.831277 1.067161
86 1 3.787525 5.102367 3.201484
87 1 2.525017 5.831277 5.335807
88 1 3.787525 5.102367 7.470130
89 1 2.525017 5.831277 9.604453
90 1 3.787525 5.102367 11.738776
91 1 1.262508 8.018006 1.067161
92 1 2.525017 7.289096 3.201484
93 1 1.262508 8.018006 5.335807
94 1 2.525017 7.289096 7.470130
95 1 1.262508 8.018006 9.604453
96 1 2.525017 7.289096 11.738776
97 1 0.000000 10.204734 1.067161
98 1 1.262508 9.475825 3.201484
99 1 0.000000 10.204734 5.335807
100 1 1.262508 9.475825 7.470130
101 1 0.000000 10.204734 9.604453
102 1 1.262508 9.475825 11.738776
103 1 -1.262508 12.391463 1.067161
104 1 -0.000000 11.662554 3.201484
105 1 -1.262508 12.391463 5.335807
106 1 -0.000000 11.662554 7.470130
107 1 -1.262508 12.391463 9.604453
108 1 -0.000000 11.662554 11.738776
109 1 7.575051 1.457819 1.067161
110 1 8.837559 0.728910 3.201484
111 1 7.575051 1.457819 5.335807
112 1 8.837559 0.728910 7.470130
113 1 7.575051 1.457819 9.604453
114 1 8.837559 0.728910 11.738776
115 1 6.312542 3.644548 1.067161
116 1 7.575051 2.915638 3.201484
117 1 6.312542 3.644548 5.335807
118 1 7.575051 2.915638 7.470130
119 1 6.312542 3.644548 9.604453
120 1 7.575051 2.915638 11.738776
121 1 5.050034 5.831277 1.067161
122 1 6.312542 5.102367 3.201484
123 1 5.050034 5.831277 5.335807
124 1 6.312542 5.102367 7.470130
125 1 5.050034 5.831277 9.604453
126 1 6.312542 5.102367 11.738776
127 1 3.787525 8.018006 1.067161
128 1 5.050034 7.289096 3.201484
129 1 3.787525 8.018006 5.335807
130 1 5.050034 7.289096 7.470130
131 1 3.787525 8.018006 9.604453
132 1 5.050034 7.289096 11.738776
133 1 2.525017 10.204734 1.067161
134 1 3.787525 9.475825 3.201484
135 1 2.525017 10.204734 5.335807
136 1 3.787525 9.475825 7.470130
137 1 2.525017 10.204734 9.604453
138 1 3.787525 9.475825 11.738776
139 1 1.262508 12.391463 1.067161
140 1 2.525017 11.662554 3.201484
141 1 1.262508 12.391463 5.335807
142 1 2.525017 11.662554 7.470130
143 1 1.262508 12.391463 9.604453
144 1 2.525017 11.662554 11.738776
145 1 10.100068 1.457819 1.067161
146 1 11.362576 0.728910 3.201484
147 1 10.100068 1.457819 5.335807
148 1 11.362576 0.728910 7.470130
149 1 10.100068 1.457819 9.604453
150 1 11.362576 0.728910 11.738776
151 1 8.837559 3.644548 1.067161
152 1 10.100068 2.915638 3.201484
153 1 8.837559 3.644548 5.335807
154 1 10.100068 2.915638 7.470130
155 1 8.837559 3.644548 9.604453
156 1 10.100068 2.915638 11.738776
157 1 7.575051 5.831277 1.067161
158 1 8.837559 5.102367 3.201484
159 1 7.575051 5.831277 5.335807
160 1 8.837559 5.102367 7.470130
161 1 7.575051 5.831277 9.604453
162 1 8.837559 5.102367 11.738776
163 1 6.312542 8.018006 1.067161
164 1 7.575051 7.289096 3.201484
165 1 6.312542 8.018006 5.335807
166 1 7.575051 7.289096 7.470130
167 1 6.312542 8.018006 9.604453
168 1 7.575051 7.289096 11.738776
169 1 5.050034 10.204734 1.067161
170 1 6.312542 9.475825 3.201484
171 1 5.050034 10.204734 5.335807
172 1 6.312542 9.475825 7.470130
173 1 5.050034 10.204734 9.604453
174 1 6.312542 9.475825 11.738776
175 1 3.787525 12.391463 1.067161
176 1 5.050034 11.662554 3.201484
177 1 3.787525 12.391463 5.335807
178 1 5.050034 11.662554 7.470130
179 1 3.787525 12.391463 9.604453
180 1 5.050034 11.662554 11.738776
181 1 12.625085 1.457819 1.067161
182 1 13.887593 0.728910 3.201484
183 1 12.625085 1.457819 5.335807
184 1 13.887593 0.728910 7.470130
185 1 12.625085 1.457819 9.604453
186 1 13.887593 0.728910 11.738776
187 1 11.362576 3.644548 1.067161
188 1 12.625085 2.915638 3.201484
189 1 11.362576 3.644548 5.335807
190 1 12.625085 2.915638 7.470130
191 1 11.362576 3.644548 9.604453
192 1 12.625085 2.915638 11.738776
193 1 10.100068 5.831277 1.067161
194 1 11.362576 5.102367 3.201484
195 1 10.100068 5.831277 5.335807
196 1 11.362576 5.102367 7.470130
197 1 10.100068 5.831277 9.604453
198 1 11.362576 5.102367 11.738776
199 1 8.837559 8.018006 1.067161
200 1 10.100068 7.289096 3.201484
201 1 8.837559 8.018006 5.335807
202 1 10.100068 7.289096 7.470130
203 1 8.837559 8.018006 9.604453
204 1 10.100068 7.289096 11.738776
205 1 7.575051 10.204734 1.067161
206 1 8.837559 9.475825 3.201484
207 1 7.575051 10.204734 5.335807
208 1 8.837559 9.475825 7.470130
209 1 7.575051 10.204734 9.604453
210 1 8.837559 9.475825 11.738776
211 1 6.312542 12.391463 1.067161
212 1 7.575051 11.662554 3.201484
213 1 6.312542 12.391463 5.335807
214 1 7.575051 11.662554 7.470130
215 1 6.312542 12.391463 9.604453
216 1 7.575051 11.662554 11.738776
