# LAMMPS data file written by OVITO Basic 3.10.6

5184 atoms
1 atom types

0.0 97.98664272 xlo xhi
0.0 32.66221424 ylo yhi
0.0 32.66221424 zlo zhi
0.0 0.0 0.0 xy xz yz

Masses

1 28.0855  # Si

Atoms  # atomic

1 1 4.08277678 4.08277678 1.36092559
2 1 2.40000035e-09 2.72185119 2.72185119
3 1 4.08277678 1.36092559 4.08277678
4 1 2.4000002e-09 -2.18952885e-47 -1.8e-15
5 1 1.3609256 4.08277678 4.08277678
6 1 2.72185119 2.72185119 -2.1e-15
7 1 1.3609256 1.36092559 1.36092559
8 1 2.72185119 1.5e-16 2.72185119
9 1 4.08277678 4.08277678 6.80462797
10 1 2.40000065e-09 2.72185119 8.16555356
11 1 4.08277678 1.36092559 9.52647915
12 1 2.4000005e-09 3.0e-16 5.44370237
13 1 1.3609256 4.08277678 9.52647915
14 1 2.72185119 2.72185119 5.44370237
15 1 1.3609256 1.36092559 6.80462797
16 1 2.72185119 4.5e-16 8.16555356
17 1 4.08277678 4.08277678 12.24833034
18 1 2.40000095e-09 2.72185119 13.60925593
19 1 4.08277678 1.36092559 14.97018153
20 1 2.4000008e-09 6.0e-16 10.88740475
21 1 1.3609256 4.08277678 14.97018153
22 1 2.72185119 2.72185119 10.88740475
23 1 1.3609256 1.36092559 12.24833034
24 1 2.72185119 7.5e-16 13.60925593
25 1 4.08277678 9.52647915 1.36092559
26 1 2.40000035e-09 8.16555356 2.72185119
27 1 4.08277678 6.80462797 4.08277678
28 1 2.4000002e-09 5.44370237 -1.21182158e-15
29 1 1.3609256 9.52647915 4.08277678
30 1 2.72185119 8.16555356 -1.51182158e-15
31 1 1.3609256 6.80462797 1.36092559
32 1 2.72185119 5.44370237 2.72185119
33 1 4.08277678 9.52647915 6.80462797
34 1 2.40000065e-09 8.16555356 8.16555356
35 1 4.08277678 6.80462797 9.52647915
36 1 2.4000005e-09 5.44370237 5.44370237
37 1 1.3609256 9.52647915 9.52647915
38 1 2.72185119 8.16555356 5.44370237
39 1 1.3609256 6.80462797 6.80462797
40 1 2.72185119 5.44370237 8.16555356
41 1 4.08277678 9.52647915 12.24833034
42 1 2.40000095e-09 8.16555356 13.60925593
43 1 4.08277678 6.80462797 14.97018153
44 1 2.4000008e-09 5.44370237 10.88740475
45 1 1.3609256 9.52647915 14.97018153
46 1 2.72185119 8.16555356 10.88740475
47 1 1.3609256 6.80462797 12.24833034
48 1 2.72185119 5.44370237 13.60925593
49 1 4.08277678 14.97018153 1.36092559
50 1 2.40000035e-09 13.60925593 2.72185119
51 1 4.08277678 12.24833034 4.08277678
52 1 2.4000002e-09 10.88740475 -1.51182158e-15
53 1 1.3609256 14.97018153 4.08277678
54 1 2.72185119 13.60925593 -1.81182158e-15
55 1 1.3609256 12.24833034 1.36092559
56 1 2.72185119 10.88740475 2.72185119
57 1 4.08277678 14.97018153 6.80462797
58 1 2.40000065e-09 13.60925593 8.16555356
59 1 4.08277678 12.24833034 9.52647915
60 1 2.4000005e-09 10.88740475 5.44370237
61 1 1.3609256 14.97018153 9.52647915
62 1 2.72185119 13.60925593 5.44370237
63 1 1.3609256 12.24833034 6.80462797
64 1 2.72185119 10.88740475 8.16555356
65 1 4.08277678 14.97018153 12.24833034
66 1 2.40000095e-09 13.60925593 13.60925593
67 1 4.08277678 12.24833034 14.97018153
68 1 2.4000008e-09 10.88740475 10.88740475
69 1 1.3609256 14.97018153 14.97018153
70 1 2.72185119 13.60925593 10.88740475
71 1 1.3609256 12.24833034 12.24833034
72 1 2.72185119 10.88740475 13.60925593
73 1 9.52647916 4.08277678 1.36092559
74 1 5.44370238 2.72185119 2.72185119
75 1 9.52647916 1.36092559 4.08277678
76 1 5.44370238 3.24142493e-32 -1.21182158e-15
77 1 6.80462797 4.08277678 4.08277678
78 1 8.16555356 2.72185119 -1.51182158e-15
79 1 6.80462797 1.36092559 1.36092559
80 1 8.16555356 1.5e-16 2.72185119
81 1 9.52647916 4.08277678 6.80462797
82 1 5.44370238 2.72185119 8.16555356
83 1 9.52647916 1.36092559 9.52647915
84 1 5.44370238 3.0e-16 5.44370237
85 1 6.80462797 4.08277678 9.52647915
86 1 8.16555356 2.72185119 5.44370237
87 1 6.80462797 1.36092559 6.80462797
88 1 8.16555356 4.5e-16 8.16555356
89 1 9.52647916 4.08277678 12.24833034
90 1 5.44370238 2.72185119 13.60925593
91 1 9.52647916 1.36092559 14.97018153
92 1 5.44370238 6.0e-16 10.88740475
93 1 6.80462797 4.08277678 14.97018153
94 1 8.16555356 2.72185119 10.88740475
95 1 6.80462797 1.36092559 12.24833034
96 1 8.16555356 7.5e-16 13.60925593
97 1 9.52647916 9.52647915 1.36092559
98 1 5.44370238 8.16555356 2.72185119
99 1 9.52647916 6.80462797 4.08277678
100 1 5.44370238 5.44370237 -1.51182158e-15
101 1 6.80462797 9.52647915 4.08277678
102 1 8.16555356 8.16555356 -1.81182158e-15
103 1 6.80462797 6.80462797 1.36092559
104 1 8.16555356 5.44370237 2.72185119
105 1 9.52647916 9.52647915 6.80462797
106 1 5.44370238 8.16555356 8.16555356
107 1 9.52647916 6.80462797 9.52647915
108 1 5.44370238 5.44370237 5.44370237
109 1 6.80462797 9.52647915 9.52647915
110 1 8.16555356 8.16555356 5.44370237
111 1 6.80462797 6.80462797 6.80462797
112 1 8.16555356 5.44370237 8.16555356
113 1 9.52647916 9.52647915 12.24833034
114 1 5.44370238 8.16555356 13.60925593
115 1 9.52647916 6.80462797 14.97018153
116 1 5.44370238 5.44370237 10.88740475
117 1 6.80462797 9.52647915 14.97018153
118 1 8.16555356 8.16555356 10.88740475
119 1 6.80462797 6.80462797 12.24833034
120 1 8.16555356 5.44370237 13.60925593
121 1 9.52647916 14.97018153 1.36092559
122 1 5.44370238 13.60925593 2.72185119
123 1 9.52647916 12.24833034 4.08277678
124 1 5.44370238 10.88740475 -1.81182158e-15
125 1 6.80462797 14.97018153 4.08277678
126 1 8.16555356 13.60925593 -2.11182158e-15
127 1 6.80462797 12.24833034 1.36092559
128 1 8.16555356 10.88740475 2.72185119
129 1 9.52647916 14.97018153 6.80462797
130 1 5.44370238 13.60925593 8.16555356
131 1 9.52647916 12.24833034 9.52647915
132 1 5.44370238 10.88740475 5.44370237
133 1 6.80462797 14.97018153 9.52647915
134 1 8.16555356 13.60925593 5.44370237
135 1 6.80462797 12.24833034 6.80462797
136 1 8.16555356 10.88740475 8.16555356
137 1 9.52647916 14.97018153 12.24833034
138 1 5.44370238 13.60925593 13.60925593
139 1 9.52647916 12.24833034 14.97018153
140 1 5.44370238 10.88740475 10.88740475
141 1 6.80462797 14.97018153 14.97018153
142 1 8.16555356 13.60925593 10.88740475
143 1 6.80462797 12.24833034 12.24833034
144 1 8.16555356 10.88740475 13.60925593
145 1 14.97018153 4.08277678 1.36092559
146 1 10.88740475 2.72185119 2.72185119
147 1 14.97018153 1.36092559 4.08277678
148 1 10.88740475 1.58813837e-32 -1.51182158e-15
149 1 12.24833034 4.08277678 4.08277678
150 1 13.60925593 2.72185119 -1.81182158e-15
151 1 12.24833034 1.36092559 1.36092559
152 1 13.60925593 1.5e-16 2.72185119
153 1 14.97018153 4.08277678 6.80462797
154 1 10.88740475 2.72185119 8.16555356
155 1 14.97018153 1.36092559 9.52647915
156 1 10.88740475 3.0e-16 5.44370237
157 1 12.24833034 4.08277678 9.52647915
158 1 13.60925593 2.72185119 5.44370237
159 1 12.24833034 1.36092559 6.80462797
160 1 13.60925593 4.5e-16 8.16555356
161 1 14.97018153 4.08277678 12.24833034
162 1 10.88740475 2.72185119 13.60925593
163 1 14.97018153 1.36092559 14.97018153
164 1 10.88740475 6.0e-16 10.88740475
165 1 12.24833034 4.08277678 14.97018153
166 1 13.60925593 2.72185119 10.88740475
167 1 12.24833034 1.36092559 12.24833034
168 1 13.60925593 7.5e-16 13.60925593
169 1 14.97018153 9.52647915 1.36092559
170 1 10.88740475 8.16555356 2.72185119
171 1 14.97018153 6.80462797 4.08277678
172 1 10.88740475 5.44370237 -1.81182158e-15
173 1 12.24833034 9.52647915 4.08277678
174 1 13.60925593 8.16555356 -2.11182158e-15
175 1 12.24833034 6.80462797 1.36092559
176 1 13.60925593 5.44370237 2.72185119
177 1 14.97018153 9.52647915 6.80462797
178 1 10.88740475 8.16555356 8.16555356
179 1 14.97018153 6.80462797 9.52647915
180 1 10.88740475 5.44370237 5.44370237
181 1 12.24833034 9.52647915 9.52647915
182 1 13.60925593 8.16555356 5.44370237
183 1 12.24833034 6.80462797 6.80462797
184 1 13.60925593 5.44370237 8.16555356
185 1 14.97018153 9.52647915 12.24833034
186 1 10.88740475 8.16555356 13.60925593
187 1 14.97018153 6.80462797 14.97018153
188 1 10.88740475 5.44370237 10.88740475
189 1 12.24833034 9.52647915 14.97018153
190 1 13.60925593 8.16555356 10.88740475
191 1 12.24833034 6.80462797 12.24833034
192 1 13.60925593 5.44370237 13.60925593
193 1 14.97018153 14.97018153 1.36092559
194 1 10.88740475 13.60925593 2.72185119
195 1 14.97018153 12.24833034 4.08277678
196 1 10.88740475 10.88740475 -1.22364316e-15
197 1 12.24833034 14.97018153 4.08277678
198 1 13.60925593 13.60925593 -1.52364316e-15
199 1 12.24833034 12.24833034 1.36092559
200 1 13.60925593 10.88740475 2.72185119
201 1 14.97018153 14.97018153 6.80462797
202 1 10.88740475 13.60925593 8.16555356
203 1 14.97018153 12.24833034 9.52647915
204 1 10.88740475 10.88740475 5.44370237
205 1 12.24833034 14.97018153 9.52647915
206 1 13.60925593 13.60925593 5.44370237
207 1 12.24833034 12.24833034 6.80462797
208 1 13.60925593 10.88740475 8.16555356
209 1 14.97018153 14.97018153 12.24833034
210 1 10.88740475 13.60925593 13.60925593
211 1 14.97018153 12.24833034 14.97018153
212 1 10.88740475 10.88740475 10.88740475
213 1 12.24833034 14.97018153 14.97018153
214 1 13.60925593 13.60925593 10.88740475
215 1 12.24833034 12.24833034 12.24833034
216 1 13.60925593 10.88740475 13.60925593
217 1 4.08277678 4.08277678 17.69203271
218 1 2.40000125e-09 2.72185119 19.05295831
219 1 4.08277678 1.36092559 20.4138839
220 1 2.4000011e-09 9.0e-16 16.33110712
221 1 1.3609256 4.08277678 20.4138839
222 1 2.72185119 2.72185119 16.33110712
223 1 1.3609256 1.36092559 17.69203271
224 1 2.72185119 1.05e-15 19.05295831
225 1 4.08277678 4.08277678 23.13573508
226 1 2.40000155e-09 2.72185119 24.49666068
227 1 4.08277678 1.36092559 25.85758627
228 1 2.4000014e-09 1.2e-15 21.77480949
229 1 1.3609256 4.08277678 25.85758627
230 1 2.72185119 2.72185119 21.77480949
231 1 1.3609256 1.36092559 23.13573508
232 1 2.72185119 1.35e-15 24.49666068
233 1 4.08277678 4.08277678 28.57943746
234 1 2.40000185e-09 2.72185119 29.94036305
235 1 4.08277678 1.36092559 31.30128864
236 1 2.4000017e-09 1.5e-15 27.21851186
237 1 1.3609256 4.08277678 31.30128864
238 1 2.72185119 2.72185119 27.21851186
239 1 1.3609256 1.36092559 28.57943746
240 1 2.72185119 1.65e-15 29.94036305
241 1 4.08277678 9.52647915 17.69203271
242 1 2.40000125e-09 8.16555356 19.05295831
243 1 4.08277678 6.80462797 20.4138839
244 1 2.4000011e-09 5.44370237 16.33110712
245 1 1.3609256 9.52647915 20.4138839
246 1 2.72185119 8.16555356 16.33110712
247 1 1.3609256 6.80462797 17.69203271
248 1 2.72185119 5.44370237 19.05295831
249 1 4.08277678 9.52647915 23.13573508
250 1 2.40000155e-09 8.16555356 24.49666068
251 1 4.08277678 6.80462797 25.85758627
252 1 2.4000014e-09 5.44370237 21.77480949
253 1 1.3609256 9.52647915 25.85758627
254 1 2.72185119 8.16555356 21.77480949
255 1 1.3609256 6.80462797 23.13573508
256 1 2.72185119 5.44370237 24.49666068
257 1 4.08277678 9.52647915 28.57943746
258 1 2.40000185e-09 8.16555356 29.94036305
259 1 4.08277678 6.80462797 31.30128864
260 1 2.4000017e-09 5.44370237 27.21851186
261 1 1.3609256 9.52647915 31.30128864
262 1 2.72185119 8.16555356 27.21851186
263 1 1.3609256 6.80462797 28.57943746
264 1 2.72185119 5.44370237 29.94036305
265 1 4.08277678 14.97018153 17.69203271
266 1 2.40000125e-09 13.60925593 19.05295831
267 1 4.08277678 12.24833034 20.4138839
268 1 2.4000011e-09 10.88740475 16.33110712
269 1 1.3609256 14.97018153 20.4138839
270 1 2.72185119 13.60925593 16.33110712
271 1 1.3609256 12.24833034 17.69203271
272 1 2.72185119 10.88740475 19.05295831
273 1 4.08277678 14.97018153 23.13573508
274 1 2.40000155e-09 13.60925593 24.49666068
275 1 4.08277678 12.24833034 25.85758627
276 1 2.4000014e-09 10.88740475 21.77480949
277 1 1.3609256 14.97018153 25.85758627
278 1 2.72185119 13.60925593 21.77480949
279 1 1.3609256 12.24833034 23.13573508
280 1 2.72185119 10.88740475 24.49666068
281 1 4.08277678 14.97018153 28.57943746
282 1 2.40000185e-09 13.60925593 29.94036305
283 1 4.08277678 12.24833034 31.30128864
284 1 2.4000017e-09 10.88740475 27.21851186
285 1 1.3609256 14.97018153 31.30128864
286 1 2.72185119 13.60925593 27.21851186
287 1 1.3609256 12.24833034 28.57943746
288 1 2.72185119 10.88740475 29.94036305
289 1 9.52647916 4.08277678 17.69203271
290 1 5.44370238 2.72185119 19.05295831
291 1 9.52647916 1.36092559 20.4138839
292 1 5.44370238 9.0e-16 16.33110712
293 1 6.80462797 4.08277678 20.4138839
294 1 8.16555356 2.72185119 16.33110712
295 1 6.80462797 1.36092559 17.69203271
296 1 8.16555356 1.05e-15 19.05295831
297 1 9.52647916 4.08277678 23.13573508
298 1 5.44370238 2.72185119 24.49666068
299 1 9.52647916 1.36092559 25.85758627
300 1 5.44370238 1.2e-15 21.77480949
301 1 6.80462797 4.08277678 25.85758627
302 1 8.16555356 2.72185119 21.77480949
303 1 6.80462797 1.36092559 23.13573508
304 1 8.16555356 1.35e-15 24.49666068
305 1 9.52647916 4.08277678 28.57943746
306 1 5.44370238 2.72185119 29.94036305
307 1 9.52647916 1.36092559 31.30128864
308 1 5.44370238 1.5e-15 27.21851186
309 1 6.80462797 4.08277678 31.30128864
310 1 8.16555356 2.72185119 27.21851186
311 1 6.80462797 1.36092559 28.57943746
312 1 8.16555356 1.65e-15 29.94036305
313 1 9.52647916 9.52647915 17.69203271
314 1 5.44370238 8.16555356 19.05295831
315 1 9.52647916 6.80462797 20.4138839
316 1 5.44370238 5.44370237 16.33110712
317 1 6.80462797 9.52647915 20.4138839
318 1 8.16555356 8.16555356 16.33110712
319 1 6.80462797 6.80462797 17.69203271
320 1 8.16555356 5.44370237 19.05295831
321 1 9.52647916 9.52647915 23.13573508
322 1 5.44370238 8.16555356 24.49666068
323 1 9.52647916 6.80462797 25.85758627
324 1 5.44370238 5.44370237 21.77480949
325 1 6.80462797 9.52647915 25.85758627
326 1 8.16555356 8.16555356 21.77480949
327 1 6.80462797 6.80462797 23.13573508
328 1 8.16555356 5.44370237 24.49666068
329 1 9.52647916 9.52647915 28.57943746
330 1 5.44370238 8.16555356 29.94036305
331 1 9.52647916 6.80462797 31.30128864
332 1 5.44370238 5.44370237 27.21851186
333 1 6.80462797 9.52647915 31.30128864
334 1 8.16555356 8.16555356 27.21851186
335 1 6.80462797 6.80462797 28.57943746
336 1 8.16555356 5.44370237 29.94036305
337 1 9.52647916 14.97018153 17.69203271
338 1 5.44370238 13.60925593 19.05295831
339 1 9.52647916 12.24833034 20.4138839
340 1 5.44370238 10.88740475 16.33110712
341 1 6.80462797 14.97018153 20.4138839
342 1 8.16555356 13.60925593 16.33110712
343 1 6.80462797 12.24833034 17.69203271
344 1 8.16555356 10.88740475 19.05295831
345 1 9.52647916 14.97018153 23.13573508
346 1 5.44370238 13.60925593 24.49666068
347 1 9.52647916 12.24833034 25.85758627
348 1 5.44370238 10.88740475 21.77480949
349 1 6.80462797 14.97018153 25.85758627
350 1 8.16555356 13.60925593 21.77480949
351 1 6.80462797 12.24833034 23.13573508
352 1 8.16555356 10.88740475 24.49666068
353 1 9.52647916 14.97018153 28.57943746
354 1 5.44370238 13.60925593 29.94036305
355 1 9.52647916 12.24833034 31.30128864
356 1 5.44370238 10.88740475 27.21851186
357 1 6.80462797 14.97018153 31.30128864
358 1 8.16555356 13.60925593 27.21851186
359 1 6.80462797 12.24833034 28.57943746
360 1 8.16555356 10.88740475 29.94036305
361 1 14.97018153 4.08277678 17.69203271
362 1 10.88740475 2.72185119 19.05295831
363 1 14.97018153 1.36092559 20.4138839
364 1 10.88740475 9.0e-16 16.33110712
365 1 12.24833034 4.08277678 20.4138839
366 1 13.60925593 2.72185119 16.33110712
367 1 12.24833034 1.36092559 17.69203271
368 1 13.60925593 1.05e-15 19.05295831
369 1 14.97018153 4.08277678 23.13573508
370 1 10.88740475 2.72185119 24.49666068
371 1 14.97018153 1.36092559 25.85758627
372 1 10.88740475 1.2e-15 21.77480949
373 1 12.24833034 4.08277678 25.85758627
374 1 13.60925593 2.72185119 21.77480949
375 1 12.24833034 1.36092559 23.13573508
376 1 13.60925593 1.35e-15 24.49666068
377 1 14.97018153 4.08277678 28.57943746
378 1 10.88740475 2.72185119 29.94036305
379 1 14.97018153 1.36092559 31.30128864
380 1 10.88740475 1.5e-15 27.21851186
381 1 12.24833034 4.08277678 31.30128864
382 1 13.60925593 2.72185119 27.21851186
383 1 12.24833034 1.36092559 28.57943746
384 1 13.60925593 1.65e-15 29.94036305
385 1 14.97018153 9.52647915 17.69203271
386 1 10.88740475 8.16555356 19.05295831
387 1 14.97018153 6.80462797 20.4138839
388 1 10.88740475 5.44370237 16.33110712
389 1 12.24833034 9.52647915 20.4138839
390 1 13.60925593 8.16555356 16.33110712
391 1 12.24833034 6.80462797 17.69203271
392 1 13.60925593 5.44370237 19.05295831
393 1 14.97018153 9.52647915 23.13573508
394 1 10.88740475 8.16555356 24.49666068
395 1 14.97018153 6.80462797 25.85758627
396 1 10.88740475 5.44370237 21.77480949
397 1 12.24833034 9.52647915 25.85758627
398 1 13.60925593 8.16555356 21.77480949
399 1 12.24833034 6.80462797 23.13573508
400 1 13.60925593 5.44370237 24.49666068
401 1 14.97018153 9.52647915 28.57943746
402 1 10.88740475 8.16555356 29.94036305
403 1 14.97018153 6.80462797 31.30128864
404 1 10.88740475 5.44370237 27.21851186
405 1 12.24833034 9.52647915 31.30128864
406 1 13.60925593 8.16555356 27.21851186
407 1 12.24833034 6.80462797 28.57943746
408 1 13.60925593 5.44370237 29.94036305
409 1 14.97018153 14.97018153 17.69203271
410 1 10.88740475 13.60925593 19.05295831
411 1 14.97018153 12.24833034 20.4138839
412 1 10.88740475 10.88740475 16.33110712
413 1 12.24833034 14.97018153 20.4138839
414 1 13.60925593 13.60925593 16.33110712
415 1 12.24833034 12.24833034 17.69203271
416 1 13.60925593 10.88740475 19.05295831
417 1 14.97018153 14.97018153 23.13573508
418 1 10.88740475 13.60925593 24.49666068
419 1 14.97018153 12.24833034 25.85758627
420 1 10.88740475 10.88740475 21.77480949
421 1 12.24833034 14.97018153 25.85758627
422 1 13.60925593 13.60925593 21.77480949
423 1 12.24833034 12.24833034 23.13573508
424 1 13.60925593 10.88740475 24.49666068
425 1 14.97018153 14.97018153 28.57943746
426 1 10.88740475 13.60925593 29.94036305
427 1 14.97018153 12.24833034 31.30128864
428 1 10.88740475 10.88740475 27.21851186
429 1 12.24833034 14.97018153 31.30128864
430 1 13.60925593 13.60925593 27.21851186
431 1 12.24833034 12.24833034 28.57943746
432 1 13.60925593 10.88740475 29.94036305
433 1 4.08277678 20.4138839 1.36092559
434 1 2.40000035e-09 19.05295831 2.72185119
435 1 4.08277678 17.69203271 4.08277678
436 1 2.4000002e-09 16.33110712 -1.8e-15
437 1 1.3609256 20.4138839 4.08277678
438 1 2.72185119 19.05295831 -2.1e-15
439 1 1.3609256 17.69203271 1.36092559
440 1 2.72185119 16.33110712 2.72185119
441 1 4.08277678 20.4138839 6.80462797
442 1 2.40000065e-09 19.05295831 8.16555356
443 1 4.08277678 17.69203271 9.52647915
444 1 2.4000005e-09 16.33110712 5.44370237
445 1 1.3609256 20.4138839 9.52647915
446 1 2.72185119 19.05295831 5.44370237
447 1 1.3609256 17.69203271 6.80462797
448 1 2.72185119 16.33110712 8.16555356
449 1 4.08277678 20.4138839 12.24833034
450 1 2.40000095e-09 19.05295831 13.60925593
451 1 4.08277678 17.69203271 14.97018153
452 1 2.4000008e-09 16.33110712 10.88740475
453 1 1.3609256 20.4138839 14.97018153
454 1 2.72185119 19.05295831 10.88740475
455 1 1.3609256 17.69203271 12.24833034
456 1 2.72185119 16.33110712 13.60925593
457 1 4.08277678 25.85758627 1.36092559
458 1 2.40000035e-09 24.49666068 2.72185119
459 1 4.08277678 23.13573509 4.08277678
460 1 2.4000002e-09 21.77480949 -1.21182158e-15
461 1 1.3609256 25.85758627 4.08277678
462 1 2.72185119 24.49666068 -1.51182158e-15
463 1 1.3609256 23.13573509 1.36092559
464 1 2.72185119 21.77480949 2.72185119
465 1 4.08277678 25.85758627 6.80462797
466 1 2.40000065e-09 24.49666068 8.16555356
467 1 4.08277678 23.13573509 9.52647915
468 1 2.4000005e-09 21.77480949 5.44370237
469 1 1.3609256 25.85758627 9.52647915
470 1 2.72185119 24.49666068 5.44370237
471 1 1.3609256 23.13573509 6.80462797
472 1 2.72185119 21.77480949 8.16555356
473 1 4.08277678 25.85758627 12.24833034
474 1 2.40000095e-09 24.49666068 13.60925593
475 1 4.08277678 23.13573509 14.97018153
476 1 2.4000008e-09 21.77480949 10.88740475
477 1 1.3609256 25.85758627 14.97018153
478 1 2.72185119 24.49666068 10.88740475
479 1 1.3609256 23.13573509 12.24833034
480 1 2.72185119 21.77480949 13.60925593
481 1 4.08277678 31.30128864 1.36092559
482 1 2.40000035e-09 29.94036305 2.72185119
483 1 4.08277678 28.57943746 4.08277678
484 1 2.4000002e-09 27.21851186 -1.51182158e-15
485 1 1.3609256 31.30128864 4.08277678
486 1 2.72185119 29.94036305 -1.81182158e-15
487 1 1.3609256 28.57943746 1.36092559
488 1 2.72185119 27.21851186 2.72185119
489 1 4.08277678 31.30128864 6.80462797
490 1 2.40000065e-09 29.94036305 8.16555356
491 1 4.08277678 28.57943746 9.52647915
492 1 2.4000005e-09 27.21851186 5.44370237
493 1 1.3609256 31.30128864 9.52647915
494 1 2.72185119 29.94036305 5.44370237
495 1 1.3609256 28.57943746 6.80462797
496 1 2.72185119 27.21851186 8.16555356
497 1 4.08277678 31.30128864 12.24833034
498 1 2.40000095e-09 29.94036305 13.60925593
499 1 4.08277678 28.57943746 14.97018153
500 1 2.4000008e-09 27.21851186 10.88740475
501 1 1.3609256 31.30128864 14.97018153
502 1 2.72185119 29.94036305 10.88740475
503 1 1.3609256 28.57943746 12.24833034
504 1 2.72185119 27.21851186 13.60925593
505 1 9.52647916 20.4138839 1.36092559
506 1 5.44370238 19.05295831 2.72185119
507 1 9.52647916 17.69203271 4.08277678
508 1 5.44370238 16.33110712 -1.21182158e-15
509 1 6.80462797 20.4138839 4.08277678
510 1 8.16555356 19.05295831 -1.51182158e-15
511 1 6.80462797 17.69203271 1.36092559
512 1 8.16555356 16.33110712 2.72185119
513 1 9.52647916 20.4138839 6.80462797
514 1 5.44370238 19.05295831 8.16555356
515 1 9.52647916 17.69203271 9.52647915
516 1 5.44370238 16.33110712 5.44370237
517 1 6.80462797 20.4138839 9.52647915
518 1 8.16555356 19.05295831 5.44370237
519 1 6.80462797 17.69203271 6.80462797
520 1 8.16555356 16.33110712 8.16555356
521 1 9.52647916 20.4138839 12.24833034
522 1 5.44370238 19.05295831 13.60925593
523 1 9.52647916 17.69203271 14.97018153
524 1 5.44370238 16.33110712 10.88740475
525 1 6.80462797 20.4138839 14.97018153
526 1 8.16555356 19.05295831 10.88740475
527 1 6.80462797 17.69203271 12.24833034
528 1 8.16555356 16.33110712 13.60925593
529 1 9.52647916 25.85758627 1.36092559
530 1 5.44370238 24.49666068 2.72185119
531 1 9.52647916 23.13573509 4.08277678
532 1 5.44370238 21.77480949 -1.51182158e-15
533 1 6.80462797 25.85758627 4.08277678
534 1 8.16555356 24.49666068 -1.81182158e-15
535 1 6.80462797 23.13573509 1.36092559
536 1 8.16555356 21.77480949 2.72185119
537 1 9.52647916 25.85758627 6.80462797
538 1 5.44370238 24.49666068 8.16555356
539 1 9.52647916 23.13573509 9.52647915
540 1 5.44370238 21.77480949 5.44370237
541 1 6.80462797 25.85758627 9.52647915
542 1 8.16555356 24.49666068 5.44370237
543 1 6.80462797 23.13573509 6.80462797
544 1 8.16555356 21.77480949 8.16555356
545 1 9.52647916 25.85758627 12.24833034
546 1 5.44370238 24.49666068 13.60925593
547 1 9.52647916 23.13573509 14.97018153
548 1 5.44370238 21.77480949 10.88740475
549 1 6.80462797 25.85758627 14.97018153
550 1 8.16555356 24.49666068 10.88740475
551 1 6.80462797 23.13573509 12.24833034
552 1 8.16555356 21.77480949 13.60925593
553 1 9.52647916 31.30128864 1.36092559
554 1 5.44370238 29.94036305 2.72185119
555 1 9.52647916 28.57943746 4.08277678
556 1 5.44370238 27.21851186 -1.81182158e-15
557 1 6.80462797 31.30128864 4.08277678
558 1 8.16555356 29.94036305 -2.11182158e-15
559 1 6.80462797 28.57943746 1.36092559
560 1 8.16555356 27.21851186 2.72185119
561 1 9.52647916 31.30128864 6.80462797
562 1 5.44370238 29.94036305 8.16555356
563 1 9.52647916 28.57943746 9.52647915
564 1 5.44370238 27.21851186 5.44370237
565 1 6.80462797 31.30128864 9.52647915
566 1 8.16555356 29.94036305 5.44370237
567 1 6.80462797 28.57943746 6.80462797
568 1 8.16555356 27.21851186 8.16555356
569 1 9.52647916 31.30128864 12.24833034
570 1 5.44370238 29.94036305 13.60925593
571 1 9.52647916 28.57943746 14.97018153
572 1 5.44370238 27.21851186 10.88740475
573 1 6.80462797 31.30128864 14.97018153
574 1 8.16555356 29.94036305 10.88740475
575 1 6.80462797 28.57943746 12.24833034
576 1 8.16555356 27.21851186 13.60925593
577 1 14.97018153 20.4138839 1.36092559
578 1 10.88740475 19.05295831 2.72185119
579 1 14.97018153 17.69203271 4.08277678
580 1 10.88740475 16.33110712 -1.51182158e-15
581 1 12.24833034 20.4138839 4.08277678
582 1 13.60925593 19.05295831 -1.81182158e-15
583 1 12.24833034 17.69203271 1.36092559
584 1 13.60925593 16.33110712 2.72185119
585 1 14.97018153 20.4138839 6.80462797
586 1 10.88740475 19.05295831 8.16555356
587 1 14.97018153 17.69203271 9.52647915
588 1 10.88740475 16.33110712 5.44370237
589 1 12.24833034 20.4138839 9.52647915
590 1 13.60925593 19.05295831 5.44370237
591 1 12.24833034 17.69203271 6.80462797
592 1 13.60925593 16.33110712 8.16555356
593 1 14.97018153 20.4138839 12.24833034
594 1 10.88740475 19.05295831 13.60925593
595 1 14.97018153 17.69203271 14.97018153
596 1 10.88740475 16.33110712 10.88740475
597 1 12.24833034 20.4138839 14.97018153
598 1 13.60925593 19.05295831 10.88740475
599 1 12.24833034 17.69203271 12.24833034
600 1 13.60925593 16.33110712 13.60925593
601 1 14.97018153 25.85758627 1.36092559
602 1 10.88740475 24.49666068 2.72185119
603 1 14.97018153 23.13573509 4.08277678
604 1 10.88740475 21.77480949 -1.81182158e-15
605 1 12.24833034 25.85758627 4.08277678
606 1 13.60925593 24.49666068 -2.11182158e-15
607 1 12.24833034 23.13573509 1.36092559
608 1 13.60925593 21.77480949 2.72185119
609 1 14.97018153 25.85758627 6.80462797
610 1 10.88740475 24.49666068 8.16555356
611 1 14.97018153 23.13573509 9.52647915
612 1 10.88740475 21.77480949 5.44370237
613 1 12.24833034 25.85758627 9.52647915
614 1 13.60925593 24.49666068 5.44370237
615 1 12.24833034 23.13573509 6.80462797
616 1 13.60925593 21.77480949 8.16555356
617 1 14.97018153 25.85758627 12.24833034
618 1 10.88740475 24.49666068 13.60925593
619 1 14.97018153 23.13573509 14.97018153
620 1 10.88740475 21.77480949 10.88740475
621 1 12.24833034 25.85758627 14.97018153
622 1 13.60925593 24.49666068 10.88740475
623 1 12.24833034 23.13573509 12.24833034
624 1 13.60925593 21.77480949 13.60925593
625 1 14.97018153 31.30128864 1.36092559
626 1 10.88740475 29.94036305 2.72185119
627 1 14.97018153 28.57943746 4.08277678
628 1 10.88740475 27.21851186 -1.22364316e-15
629 1 12.24833034 31.30128864 4.08277678
630 1 13.60925593 29.94036305 -1.52364316e-15
631 1 12.24833034 28.57943746 1.36092559
632 1 13.60925593 27.21851186 2.72185119
633 1 14.97018153 31.30128864 6.80462797
634 1 10.88740475 29.94036305 8.16555356
635 1 14.97018153 28.57943746 9.52647915
636 1 10.88740475 27.21851186 5.44370237
637 1 12.24833034 31.30128864 9.52647915
638 1 13.60925593 29.94036305 5.44370237
639 1 12.24833034 28.57943746 6.80462797
640 1 13.60925593 27.21851186 8.16555356
641 1 14.97018153 31.30128864 12.24833034
642 1 10.88740475 29.94036305 13.60925593
643 1 14.97018153 28.57943746 14.97018153
644 1 10.88740475 27.21851186 10.88740475
645 1 12.24833034 31.30128864 14.97018153
646 1 13.60925593 29.94036305 10.88740475
647 1 12.24833034 28.57943746 12.24833034
648 1 13.60925593 27.21851186 13.60925593
649 1 4.08277678 20.4138839 17.69203271
650 1 2.40000125e-09 19.05295831 19.05295831
651 1 4.08277678 17.69203271 20.4138839
652 1 2.4000011e-09 16.33110712 16.33110712
653 1 1.3609256 20.4138839 20.4138839
654 1 2.72185119 19.05295831 16.33110712
655 1 1.3609256 17.69203271 17.69203271
656 1 2.72185119 16.33110712 19.05295831
657 1 4.08277678 20.4138839 23.13573509
658 1 2.40000155e-09 19.05295831 24.49666068
659 1 4.08277678 17.69203271 25.85758627
660 1 2.4000014e-09 16.33110712 21.77480949
661 1 1.3609256 20.4138839 25.85758627
662 1 2.72185119 19.05295831 21.77480949
663 1 1.3609256 17.69203271 23.13573509
664 1 2.72185119 16.33110712 24.49666068
665 1 4.08277678 20.4138839 28.57943746
666 1 2.40000185e-09 19.05295831 29.94036305
667 1 4.08277678 17.69203271 31.30128864
668 1 2.4000017e-09 16.33110712 27.21851186
669 1 1.3609256 20.4138839 31.30128864
670 1 2.72185119 19.05295831 27.21851186
671 1 1.3609256 17.69203271 28.57943746
672 1 2.72185119 16.33110712 29.94036305
673 1 4.08277678 25.85758627 17.69203271
674 1 2.40000125e-09 24.49666068 19.05295831
675 1 4.08277678 23.13573509 20.4138839
676 1 2.4000011e-09 21.77480949 16.33110712
677 1 1.3609256 25.85758627 20.4138839
678 1 2.72185119 24.49666068 16.33110712
679 1 1.3609256 23.13573509 17.69203271
680 1 2.72185119 21.77480949 19.05295831
681 1 4.08277678 25.85758627 23.13573509
682 1 2.40000155e-09 24.49666068 24.49666068
683 1 4.08277678 23.13573509 25.85758627
684 1 2.4000014e-09 21.77480949 21.77480949
685 1 1.3609256 25.85758627 25.85758627
686 1 2.72185119 24.49666068 21.77480949
687 1 1.3609256 23.13573509 23.13573509
688 1 2.72185119 21.77480949 24.49666068
689 1 4.08277678 25.85758627 28.57943746
690 1 2.40000185e-09 24.49666068 29.94036305
691 1 4.08277678 23.13573509 31.30128864
692 1 2.4000017e-09 21.77480949 27.21851186
693 1 1.3609256 25.85758627 31.30128864
694 1 2.72185119 24.49666068 27.21851186
695 1 1.3609256 23.13573509 28.57943746
696 1 2.72185119 21.77480949 29.94036305
697 1 4.08277678 31.30128864 17.69203271
698 1 2.40000125e-09 29.94036305 19.05295831
699 1 4.08277678 28.57943746 20.4138839
700 1 2.4000011e-09 27.21851186 16.33110712
701 1 1.3609256 31.30128864 20.4138839
702 1 2.72185119 29.94036305 16.33110712
703 1 1.3609256 28.57943746 17.69203271
704 1 2.72185119 27.21851186 19.05295831
705 1 4.08277678 31.30128864 23.13573508
706 1 2.40000155e-09 29.94036305 24.49666068
707 1 4.08277678 28.57943746 25.85758627
708 1 2.4000014e-09 27.21851186 21.77480949
709 1 1.3609256 31.30128864 25.85758627
710 1 2.72185119 29.94036305 21.77480949
711 1 1.3609256 28.57943746 23.13573509
712 1 2.72185119 27.21851186 24.49666068
713 1 4.08277678 31.30128864 28.57943746
714 1 2.40000185e-09 29.94036305 29.94036305
715 1 4.08277678 28.57943746 31.30128864
716 1 2.4000017e-09 27.21851186 27.21851186
717 1 1.3609256 31.30128864 31.30128864
718 1 2.72185119 29.94036305 27.21851186
719 1 1.3609256 28.57943746 28.57943746
720 1 2.72185119 27.21851186 29.94036305
721 1 9.52647916 20.4138839 17.69203271
722 1 5.44370238 19.05295831 19.05295831
723 1 9.52647916 17.69203271 20.4138839
724 1 5.44370238 16.33110712 16.33110712
725 1 6.80462797 20.4138839 20.4138839
726 1 8.16555356 19.05295831 16.33110712
727 1 6.80462797 17.69203271 17.69203271
728 1 8.16555356 16.33110712 19.05295831
729 1 9.52647916 20.4138839 23.13573509
730 1 5.44370238 19.05295831 24.49666068
731 1 9.52647916 17.69203271 25.85758627
732 1 5.44370238 16.33110712 21.77480949
733 1 6.80462797 20.4138839 25.85758627
734 1 8.16555356 19.05295831 21.77480949
735 1 6.80462797 17.69203271 23.13573509
736 1 8.16555356 16.33110712 24.49666068
737 1 9.52647916 20.4138839 28.57943746
738 1 5.44370238 19.05295831 29.94036305
739 1 9.52647916 17.69203271 31.30128864
740 1 5.44370238 16.33110712 27.21851186
741 1 6.80462797 20.4138839 31.30128864
742 1 8.16555356 19.05295831 27.21851186
743 1 6.80462797 17.69203271 28.57943746
744 1 8.16555356 16.33110712 29.94036305
745 1 9.52647916 25.85758627 17.69203271
746 1 5.44370238 24.49666068 19.05295831
747 1 9.52647916 23.13573509 20.4138839
748 1 5.44370238 21.77480949 16.33110712
749 1 6.80462797 25.85758627 20.4138839
750 1 8.16555356 24.49666068 16.33110712
751 1 6.80462797 23.13573509 17.69203271
752 1 8.16555356 21.77480949 19.05295831
753 1 9.52647916 25.85758627 23.13573508
754 1 5.44370238 24.49666068 24.49666068
755 1 9.52647916 23.13573509 25.85758627
756 1 5.44370238 21.77480949 21.77480949
757 1 6.80462797 25.85758627 25.85758627
758 1 8.16555356 24.49666068 21.77480949
759 1 6.80462797 23.13573509 23.13573509
760 1 8.16555356 21.77480949 24.49666068
761 1 9.52647916 25.85758627 28.57943746
762 1 5.44370238 24.49666068 29.94036305
763 1 9.52647916 23.13573509 31.30128864
764 1 5.44370238 21.77480949 27.21851186
765 1 6.80462797 25.85758627 31.30128864
766 1 8.16555356 24.49666068 27.21851186
767 1 6.80462797 23.13573509 28.57943746
768 1 8.16555356 21.77480949 29.94036305
769 1 9.52647916 31.30128864 17.69203271
770 1 5.44370238 29.94036305 19.05295831
771 1 9.52647916 28.57943746 20.4138839
772 1 5.44370238 27.21851186 16.33110712
773 1 6.80462797 31.30128864 20.4138839
774 1 8.16555356 29.94036305 16.33110712
775 1 6.80462797 28.57943746 17.69203271
776 1 8.16555356 27.21851186 19.05295831
777 1 9.52647916 31.30128864 23.13573508
778 1 5.44370238 29.94036305 24.49666068
779 1 9.52647916 28.57943746 25.85758627
780 1 5.44370238 27.21851186 21.77480949
781 1 6.80462797 31.30128864 25.85758627
782 1 8.16555356 29.94036305 21.77480949
783 1 6.80462797 28.57943746 23.13573508
784 1 8.16555356 27.21851186 24.49666068
785 1 9.52647916 31.30128864 28.57943746
786 1 5.44370238 29.94036305 29.94036305
787 1 9.52647916 28.57943746 31.30128864
788 1 5.44370238 27.21851186 27.21851186
789 1 6.80462797 31.30128864 31.30128864
790 1 8.16555356 29.94036305 27.21851186
791 1 6.80462797 28.57943746 28.57943746
792 1 8.16555356 27.21851186 29.94036305
793 1 14.97018153 20.4138839 17.69203271
794 1 10.88740475 19.05295831 19.05295831
795 1 14.97018153 17.69203271 20.4138839
796 1 10.88740475 16.33110712 16.33110712
797 1 12.24833034 20.4138839 20.4138839
798 1 13.60925593 19.05295831 16.33110712
799 1 12.24833034 17.69203271 17.69203271
800 1 13.60925593 16.33110712 19.05295831
801 1 14.97018153 20.4138839 23.13573508
802 1 10.88740475 19.05295831 24.49666068
803 1 14.97018153 17.69203271 25.85758627
804 1 10.88740475 16.33110712 21.77480949
805 1 12.24833034 20.4138839 25.85758627
806 1 13.60925593 19.05295831 21.77480949
807 1 12.24833034 17.69203271 23.13573509
808 1 13.60925593 16.33110712 24.49666068
809 1 14.97018153 20.4138839 28.57943746
810 1 10.88740475 19.05295831 29.94036305
811 1 14.97018153 17.69203271 31.30128864
812 1 10.88740475 16.33110712 27.21851186
813 1 12.24833034 20.4138839 31.30128864
814 1 13.60925593 19.05295831 27.21851186
815 1 12.24833034 17.69203271 28.57943746
816 1 13.60925593 16.33110712 29.94036305
817 1 14.97018153 25.85758627 17.69203271
818 1 10.88740475 24.49666068 19.05295831
819 1 14.97018153 23.13573509 20.4138839
820 1 10.88740475 21.77480949 16.33110712
821 1 12.24833034 25.85758627 20.4138839
822 1 13.60925593 24.49666068 16.33110712
823 1 12.24833034 23.13573509 17.69203271
824 1 13.60925593 21.77480949 19.05295831
825 1 14.97018153 25.85758627 23.13573508
826 1 10.88740475 24.49666068 24.49666068
827 1 14.97018153 23.13573509 25.85758627
828 1 10.88740475 21.77480949 21.77480949
829 1 12.24833034 25.85758627 25.85758627
830 1 13.60925593 24.49666068 21.77480949
831 1 12.24833034 23.13573509 23.13573508
832 1 13.60925593 21.77480949 24.49666068
833 1 14.97018153 25.85758627 28.57943746
834 1 10.88740475 24.49666068 29.94036305
835 1 14.97018153 23.13573509 31.30128864
836 1 10.88740475 21.77480949 27.21851186
837 1 12.24833034 25.85758627 31.30128864
838 1 13.60925593 24.49666068 27.21851186
839 1 12.24833034 23.13573509 28.57943746
840 1 13.60925593 21.77480949 29.94036305
841 1 14.97018153 31.30128864 17.69203271
842 1 10.88740475 29.94036305 19.05295831
843 1 14.97018153 28.57943746 20.4138839
844 1 10.88740475 27.21851186 16.33110712
845 1 12.24833034 31.30128864 20.4138839
846 1 13.60925593 29.94036305 16.33110712
847 1 12.24833034 28.57943746 17.69203271
848 1 13.60925593 27.21851186 19.05295831
849 1 14.97018153 31.30128864 23.13573508
850 1 10.88740475 29.94036305 24.49666068
851 1 14.97018153 28.57943746 25.85758627
852 1 10.88740475 27.21851186 21.77480949
853 1 12.24833034 31.30128864 25.85758627
854 1 13.60925593 29.94036305 21.77480949
855 1 12.24833034 28.57943746 23.13573508
856 1 13.60925593 27.21851186 24.49666068
857 1 14.97018153 31.30128864 28.57943746
858 1 10.88740475 29.94036305 29.94036305
859 1 14.97018153 28.57943746 31.30128864
860 1 10.88740475 27.21851186 27.21851186
861 1 12.24833034 31.30128864 31.30128864
862 1 13.60925593 29.94036305 27.21851186
863 1 12.24833034 28.57943746 28.57943746
864 1 13.60925593 27.21851186 29.94036305
865 1 20.4138839 4.08277678 1.36092559
866 1 16.33110712 2.72185119 2.72185119
867 1 20.4138839 1.36092559 4.08277678
868 1 16.33110712 -2.18952885e-47 -1.8e-15
869 1 17.69203271 4.08277678 4.08277678
870 1 19.05295831 2.72185119 -2.1e-15
871 1 17.69203271 1.36092559 1.36092559
872 1 19.05295831 1.5e-16 2.72185119
873 1 20.4138839 4.08277678 6.80462797
874 1 16.33110712 2.72185119 8.16555356
875 1 20.4138839 1.36092559 9.52647915
876 1 16.33110712 3.0e-16 5.44370237
877 1 17.69203271 4.08277678 9.52647915
878 1 19.05295831 2.72185119 5.44370237
879 1 17.69203271 1.36092559 6.80462797
880 1 19.05295831 4.5e-16 8.16555356
881 1 20.4138839 4.08277678 12.24833034
882 1 16.33110712 2.72185119 13.60925593
883 1 20.4138839 1.36092559 14.97018153
884 1 16.33110712 6.0e-16 10.88740475
885 1 17.69203271 4.08277678 14.97018153
886 1 19.05295831 2.72185119 10.88740475
887 1 17.69203271 1.36092559 12.24833034
888 1 19.05295831 7.5e-16 13.60925593
889 1 20.4138839 9.52647915 1.36092559
890 1 16.33110712 8.16555356 2.72185119
891 1 20.4138839 6.80462797 4.08277678
892 1 16.33110712 5.44370237 -1.21182158e-15
893 1 17.69203271 9.52647915 4.08277678
894 1 19.05295831 8.16555356 -1.51182158e-15
895 1 17.69203271 6.80462797 1.36092559
896 1 19.05295831 5.44370237 2.72185119
897 1 20.4138839 9.52647915 6.80462797
898 1 16.33110712 8.16555356 8.16555356
899 1 20.4138839 6.80462797 9.52647915
900 1 16.33110712 5.44370237 5.44370237
901 1 17.69203271 9.52647915 9.52647915
902 1 19.05295831 8.16555356 5.44370237
903 1 17.69203271 6.80462797 6.80462797
904 1 19.05295831 5.44370237 8.16555356
905 1 20.4138839 9.52647915 12.24833034
906 1 16.33110712 8.16555356 13.60925593
907 1 20.4138839 6.80462797 14.97018153
908 1 16.33110712 5.44370237 10.88740475
909 1 17.69203271 9.52647915 14.97018153
910 1 19.05295831 8.16555356 10.88740475
911 1 17.69203271 6.80462797 12.24833034
912 1 19.05295831 5.44370237 13.60925593
913 1 20.4138839 14.97018153 1.36092559
914 1 16.33110712 13.60925593 2.72185119
915 1 20.4138839 12.24833034 4.08277678
916 1 16.33110712 10.88740475 -1.51182158e-15
917 1 17.69203271 14.97018153 4.08277678
918 1 19.05295831 13.60925593 -1.81182158e-15
919 1 17.69203271 12.24833034 1.36092559
920 1 19.05295831 10.88740475 2.72185119
921 1 20.4138839 14.97018153 6.80462797
922 1 16.33110712 13.60925593 8.16555356
923 1 20.4138839 12.24833034 9.52647915
924 1 16.33110712 10.88740475 5.44370237
925 1 17.69203271 14.97018153 9.52647915
926 1 19.05295831 13.60925593 5.44370237
927 1 17.69203271 12.24833034 6.80462797
928 1 19.05295831 10.88740475 8.16555356
929 1 20.4138839 14.97018153 12.24833034
930 1 16.33110712 13.60925593 13.60925593
931 1 20.4138839 12.24833034 14.97018153
932 1 16.33110712 10.88740475 10.88740475
933 1 17.69203271 14.97018153 14.97018153
934 1 19.05295831 13.60925593 10.88740475
935 1 17.69203271 12.24833034 12.24833034
936 1 19.05295831 10.88740475 13.60925593
937 1 25.85758627 4.08277678 1.36092559
938 1 21.77480949 2.72185119 2.72185119
939 1 25.85758627 1.36092559 4.08277678
940 1 21.77480949 3.24142493e-32 -1.21182158e-15
941 1 23.13573509 4.08277678 4.08277678
942 1 24.49666068 2.72185119 -1.51182158e-15
943 1 23.13573509 1.36092559 1.36092559
944 1 24.49666068 1.5e-16 2.72185119
945 1 25.85758627 4.08277678 6.80462797
946 1 21.77480949 2.72185119 8.16555356
947 1 25.85758627 1.36092559 9.52647915
948 1 21.77480949 3.0e-16 5.44370237
949 1 23.13573509 4.08277678 9.52647915
950 1 24.49666068 2.72185119 5.44370237
951 1 23.13573509 1.36092559 6.80462797
952 1 24.49666068 4.5e-16 8.16555356
953 1 25.85758627 4.08277678 12.24833034
954 1 21.77480949 2.72185119 13.60925593
955 1 25.85758627 1.36092559 14.97018153
956 1 21.77480949 6.0e-16 10.88740475
957 1 23.13573509 4.08277678 14.97018153
958 1 24.49666068 2.72185119 10.88740475
959 1 23.13573509 1.36092559 12.24833034
960 1 24.49666068 7.5e-16 13.60925593
961 1 25.85758627 9.52647915 1.36092559
962 1 21.77480949 8.16555356 2.72185119
963 1 25.85758627 6.80462797 4.08277678
964 1 21.77480949 5.44370237 -1.51182158e-15
965 1 23.13573509 9.52647915 4.08277678
966 1 24.49666068 8.16555356 -1.81182158e-15
967 1 23.13573509 6.80462797 1.36092559
968 1 24.49666068 5.44370237 2.72185119
969 1 25.85758627 9.52647915 6.80462797
970 1 21.77480949 8.16555356 8.16555356
971 1 25.85758627 6.80462797 9.52647915
972 1 21.77480949 5.44370237 5.44370237
973 1 23.13573509 9.52647915 9.52647915
974 1 24.49666068 8.16555356 5.44370237
975 1 23.13573509 6.80462797 6.80462797
976 1 24.49666068 5.44370237 8.16555356
977 1 25.85758627 9.52647915 12.24833034
978 1 21.77480949 8.16555356 13.60925593
979 1 25.85758627 6.80462797 14.97018153
980 1 21.77480949 5.44370237 10.88740475
981 1 23.13573509 9.52647915 14.97018153
982 1 24.49666068 8.16555356 10.88740475
983 1 23.13573509 6.80462797 12.24833034
984 1 24.49666068 5.44370237 13.60925593
985 1 25.85758627 14.97018153 1.36092559
986 1 21.77480949 13.60925593 2.72185119
987 1 25.85758627 12.24833034 4.08277678
988 1 21.77480949 10.88740475 -1.81182158e-15
989 1 23.13573509 14.97018153 4.08277678
990 1 24.49666068 13.60925593 -2.11182158e-15
991 1 23.13573509 12.24833034 1.36092559
992 1 24.49666068 10.88740475 2.72185119
993 1 25.85758627 14.97018153 6.80462797
994 1 21.77480949 13.60925593 8.16555356
995 1 25.85758627 12.24833034 9.52647915
996 1 21.77480949 10.88740475 5.44370237
997 1 23.13573509 14.97018153 9.52647915
998 1 24.49666068 13.60925593 5.44370237
999 1 23.13573509 12.24833034 6.80462797
1000 1 24.49666068 10.88740475 8.16555356
1001 1 25.85758627 14.97018153 12.24833034
1002 1 21.77480949 13.60925593 13.60925593
1003 1 25.85758627 12.24833034 14.97018153
1004 1 21.77480949 10.88740475 10.88740475
1005 1 23.13573509 14.97018153 14.97018153
1006 1 24.49666068 13.60925593 10.88740475
1007 1 23.13573509 12.24833034 12.24833034
1008 1 24.49666068 10.88740475 13.60925593
1009 1 31.30128865 4.08277678 1.36092559
1010 1 27.21851187 2.72185119 2.72185119
1011 1 31.30128865 1.36092559 4.08277678
1012 1 27.21851187 1.58813837e-32 -1.51182158e-15
1013 1 28.57943746 4.08277678 4.08277678
1014 1 29.94036305 2.72185119 -1.81182158e-15
1015 1 28.57943746 1.36092559 1.36092559
1016 1 29.94036305 1.5e-16 2.72185119
1017 1 31.30128865 4.08277678 6.80462797
1018 1 27.21851187 2.72185119 8.16555356
1019 1 31.30128865 1.36092559 9.52647915
1020 1 27.21851187 3.0e-16 5.44370237
1021 1 28.57943746 4.08277678 9.52647915
1022 1 29.94036305 2.72185119 5.44370237
1023 1 28.57943746 1.36092559 6.80462797
1024 1 29.94036305 4.5e-16 8.16555356
1025 1 31.30128865 4.08277678 12.24833034
1026 1 27.21851187 2.72185119 13.60925593
1027 1 31.30128865 1.36092559 14.97018153
1028 1 27.21851187 6.0e-16 10.88740475
1029 1 28.57943746 4.08277678 14.97018153
1030 1 29.94036305 2.72185119 10.88740475
1031 1 28.57943746 1.36092559 12.24833034
1032 1 29.94036305 7.5e-16 13.60925593
1033 1 31.30128865 9.52647915 1.36092559
1034 1 27.21851187 8.16555356 2.72185119
1035 1 31.30128865 6.80462797 4.08277678
1036 1 27.21851187 5.44370237 -1.81182158e-15
1037 1 28.57943746 9.52647915 4.08277678
1038 1 29.94036305 8.16555356 -2.11182158e-15
1039 1 28.57943746 6.80462797 1.36092559
1040 1 29.94036305 5.44370237 2.72185119
1041 1 31.30128865 9.52647915 6.80462797
1042 1 27.21851187 8.16555356 8.16555356
1043 1 31.30128865 6.80462797 9.52647915
1044 1 27.21851187 5.44370237 5.44370237
1045 1 28.57943746 9.52647915 9.52647915
1046 1 29.94036305 8.16555356 5.44370237
1047 1 28.57943746 6.80462797 6.80462797
1048 1 29.94036305 5.44370237 8.16555356
1049 1 31.30128865 9.52647915 12.24833034
1050 1 27.21851187 8.16555356 13.60925593
1051 1 31.30128865 6.80462797 14.97018153
1052 1 27.21851187 5.44370237 10.88740475
1053 1 28.57943746 9.52647915 14.97018153
1054 1 29.94036305 8.16555356 10.88740475
1055 1 28.57943746 6.80462797 12.24833034
1056 1 29.94036305 5.44370237 13.60925593
1057 1 31.30128865 14.97018153 1.36092559
1058 1 27.21851187 13.60925593 2.72185119
1059 1 31.30128865 12.24833034 4.08277678
1060 1 27.21851187 10.88740475 -1.22364316e-15
1061 1 28.57943746 14.97018153 4.08277678
1062 1 29.94036305 13.60925593 -1.52364316e-15
1063 1 28.57943746 12.24833034 1.36092559
1064 1 29.94036305 10.88740475 2.72185119
1065 1 31.30128865 14.97018153 6.80462797
1066 1 27.21851187 13.60925593 8.16555356
1067 1 31.30128865 12.24833034 9.52647915
1068 1 27.21851187 10.88740475 5.44370237
1069 1 28.57943746 14.97018153 9.52647915
1070 1 29.94036305 13.60925593 5.44370237
1071 1 28.57943746 12.24833034 6.80462797
1072 1 29.94036305 10.88740475 8.16555356
1073 1 31.30128865 14.97018153 12.24833034
1074 1 27.21851187 13.60925593 13.60925593
1075 1 31.30128865 12.24833034 14.97018153
1076 1 27.21851187 10.88740475 10.88740475
1077 1 28.57943746 14.97018153 14.97018153
1078 1 29.94036305 13.60925593 10.88740475
1079 1 28.57943746 12.24833034 12.24833034
1080 1 29.94036305 10.88740475 13.60925593
1081 1 20.4138839 4.08277678 17.69203271
1082 1 16.33110712 2.72185119 19.05295831
1083 1 20.4138839 1.36092559 20.4138839
1084 1 16.33110712 9.0e-16 16.33110712
1085 1 17.69203271 4.08277678 20.4138839
1086 1 19.05295831 2.72185119 16.33110712
1087 1 17.69203271 1.36092559 17.69203271
1088 1 19.05295831 1.05e-15 19.05295831
1089 1 20.4138839 4.08277678 23.13573509
1090 1 16.33110712 2.72185119 24.49666068
1091 1 20.4138839 1.36092559 25.85758627
1092 1 16.33110712 1.2e-15 21.77480949
1093 1 17.69203271 4.08277678 25.85758627
1094 1 19.05295831 2.72185119 21.77480949
1095 1 17.69203271 1.36092559 23.13573509
1096 1 19.05295831 1.35e-15 24.49666068
1097 1 20.4138839 4.08277678 28.57943746
1098 1 16.33110712 2.72185119 29.94036305
1099 1 20.4138839 1.36092559 31.30128864
1100 1 16.33110712 1.5e-15 27.21851186
1101 1 17.69203271 4.08277678 31.30128864
1102 1 19.05295831 2.72185119 27.21851186
1103 1 17.69203271 1.36092559 28.57943746
1104 1 19.05295831 1.65e-15 29.94036305
1105 1 20.4138839 9.52647915 17.69203271
1106 1 16.33110712 8.16555356 19.05295831
1107 1 20.4138839 6.80462797 20.4138839
1108 1 16.33110712 5.44370237 16.33110712
1109 1 17.69203271 9.52647915 20.4138839
1110 1 19.05295831 8.16555356 16.33110712
1111 1 17.69203271 6.80462797 17.69203271
1112 1 19.05295831 5.44370237 19.05295831
1113 1 20.4138839 9.52647915 23.13573509
1114 1 16.33110712 8.16555356 24.49666068
1115 1 20.4138839 6.80462797 25.85758627
1116 1 16.33110712 5.44370237 21.77480949
1117 1 17.69203271 9.52647915 25.85758627
1118 1 19.05295831 8.16555356 21.77480949
1119 1 17.69203271 6.80462797 23.13573509
1120 1 19.05295831 5.44370237 24.49666068
1121 1 20.4138839 9.52647915 28.57943746
1122 1 16.33110712 8.16555356 29.94036305
1123 1 20.4138839 6.80462797 31.30128864
1124 1 16.33110712 5.44370237 27.21851186
1125 1 17.69203271 9.52647915 31.30128864
1126 1 19.05295831 8.16555356 27.21851186
1127 1 17.69203271 6.80462797 28.57943746
1128 1 19.05295831 5.44370237 29.94036305
1129 1 20.4138839 14.97018153 17.69203271
1130 1 16.33110712 13.60925593 19.05295831
1131 1 20.4138839 12.24833034 20.4138839
1132 1 16.33110712 10.88740475 16.33110712
1133 1 17.69203271 14.97018153 20.4138839
1134 1 19.05295831 13.60925593 16.33110712
1135 1 17.69203271 12.24833034 17.69203271
1136 1 19.05295831 10.88740475 19.05295831
1137 1 20.4138839 14.97018153 23.13573508
1138 1 16.33110712 13.60925593 24.49666068
1139 1 20.4138839 12.24833034 25.85758627
1140 1 16.33110712 10.88740475 21.77480949
1141 1 17.69203271 14.97018153 25.85758627
1142 1 19.05295831 13.60925593 21.77480949
1143 1 17.69203271 12.24833034 23.13573509
1144 1 19.05295831 10.88740475 24.49666068
1145 1 20.4138839 14.97018153 28.57943746
1146 1 16.33110712 13.60925593 29.94036305
1147 1 20.4138839 12.24833034 31.30128864
1148 1 16.33110712 10.88740475 27.21851186
1149 1 17.69203271 14.97018153 31.30128864
1150 1 19.05295831 13.60925593 27.21851186
1151 1 17.69203271 12.24833034 28.57943746
1152 1 19.05295831 10.88740475 29.94036305
1153 1 25.85758627 4.08277678 17.69203271
1154 1 21.77480949 2.72185119 19.05295831
1155 1 25.85758627 1.36092559 20.4138839
1156 1 21.77480949 9.0e-16 16.33110712
1157 1 23.13573509 4.08277678 20.4138839
1158 1 24.49666068 2.72185119 16.33110712
1159 1 23.13573509 1.36092559 17.69203271
1160 1 24.49666068 1.05e-15 19.05295831
1161 1 25.85758627 4.08277678 23.13573509
1162 1 21.77480949 2.72185119 24.49666068
1163 1 25.85758627 1.36092559 25.85758627
1164 1 21.77480949 1.2e-15 21.77480949
1165 1 23.13573509 4.08277678 25.85758627
1166 1 24.49666068 2.72185119 21.77480949
1167 1 23.13573509 1.36092559 23.13573509
1168 1 24.49666068 1.35e-15 24.49666068
1169 1 25.85758627 4.08277678 28.57943746
1170 1 21.77480949 2.72185119 29.94036305
1171 1 25.85758627 1.36092559 31.30128864
1172 1 21.77480949 1.5e-15 27.21851186
1173 1 23.13573509 4.08277678 31.30128864
1174 1 24.49666068 2.72185119 27.21851186
1175 1 23.13573509 1.36092559 28.57943746
1176 1 24.49666068 1.65e-15 29.94036305
1177 1 25.85758627 9.52647915 17.69203271
1178 1 21.77480949 8.16555356 19.05295831
1179 1 25.85758627 6.80462797 20.4138839
1180 1 21.77480949 5.44370237 16.33110712
1181 1 23.13573509 9.52647915 20.4138839
1182 1 24.49666068 8.16555356 16.33110712
1183 1 23.13573509 6.80462797 17.69203271
1184 1 24.49666068 5.44370237 19.05295831
1185 1 25.85758627 9.52647915 23.13573508
1186 1 21.77480949 8.16555356 24.49666068
1187 1 25.85758627 6.80462797 25.85758627
1188 1 21.77480949 5.44370237 21.77480949
1189 1 23.13573509 9.52647915 25.85758627
1190 1 24.49666068 8.16555356 21.77480949
1191 1 23.13573509 6.80462797 23.13573509
1192 1 24.49666068 5.44370237 24.49666068
1193 1 25.85758627 9.52647915 28.57943746
1194 1 21.77480949 8.16555356 29.94036305
1195 1 25.85758627 6.80462797 31.30128864
1196 1 21.77480949 5.44370237 27.21851186
1197 1 23.13573509 9.52647915 31.30128864
1198 1 24.49666068 8.16555356 27.21851186
1199 1 23.13573509 6.80462797 28.57943746
1200 1 24.49666068 5.44370237 29.94036305
1201 1 25.85758627 14.97018153 17.69203271
1202 1 21.77480949 13.60925593 19.05295831
1203 1 25.85758627 12.24833034 20.4138839
1204 1 21.77480949 10.88740475 16.33110712
1205 1 23.13573509 14.97018153 20.4138839
1206 1 24.49666068 13.60925593 16.33110712
1207 1 23.13573509 12.24833034 17.69203271
1208 1 24.49666068 10.88740475 19.05295831
1209 1 25.85758627 14.97018153 23.13573508
1210 1 21.77480949 13.60925593 24.49666068
1211 1 25.85758627 12.24833034 25.85758627
1212 1 21.77480949 10.88740475 21.77480949
1213 1 23.13573509 14.97018153 25.85758627
1214 1 24.49666068 13.60925593 21.77480949
1215 1 23.13573509 12.24833034 23.13573508
1216 1 24.49666068 10.88740475 24.49666068
1217 1 25.85758627 14.97018153 28.57943746
1218 1 21.77480949 13.60925593 29.94036305
1219 1 25.85758627 12.24833034 31.30128864
1220 1 21.77480949 10.88740475 27.21851186
1221 1 23.13573509 14.97018153 31.30128864
1222 1 24.49666068 13.60925593 27.21851186
1223 1 23.13573509 12.24833034 28.57943746
1224 1 24.49666068 10.88740475 29.94036305
1225 1 31.30128865 4.08277678 17.69203271
1226 1 27.21851187 2.72185119 19.05295831
1227 1 31.30128865 1.36092559 20.4138839
1228 1 27.21851187 9.0e-16 16.33110712
1229 1 28.57943746 4.08277678 20.4138839
1230 1 29.94036305 2.72185119 16.33110712
1231 1 28.57943746 1.36092559 17.69203271
1232 1 29.94036305 1.05e-15 19.05295831
1233 1 31.30128865 4.08277678 23.13573508
1234 1 27.21851187 2.72185119 24.49666068
1235 1 31.30128865 1.36092559 25.85758627
1236 1 27.21851187 1.2e-15 21.77480949
1237 1 28.57943746 4.08277678 25.85758627
1238 1 29.94036305 2.72185119 21.77480949
1239 1 28.57943746 1.36092559 23.13573509
1240 1 29.94036305 1.35e-15 24.49666068
1241 1 31.30128865 4.08277678 28.57943746
1242 1 27.21851187 2.72185119 29.94036305
1243 1 31.30128865 1.36092559 31.30128864
1244 1 27.21851187 1.5e-15 27.21851186
1245 1 28.57943746 4.08277678 31.30128864
1246 1 29.94036305 2.72185119 27.21851186
1247 1 28.57943746 1.36092559 28.57943746
1248 1 29.94036305 1.65e-15 29.94036305
1249 1 31.30128865 9.52647915 17.69203271
1250 1 27.21851187 8.16555356 19.05295831
1251 1 31.30128865 6.80462797 20.4138839
1252 1 27.21851187 5.44370237 16.33110712
1253 1 28.57943746 9.52647915 20.4138839
1254 1 29.94036305 8.16555356 16.33110712
1255 1 28.57943746 6.80462797 17.69203271
1256 1 29.94036305 5.44370237 19.05295831
1257 1 31.30128865 9.52647915 23.13573508
1258 1 27.21851187 8.16555356 24.49666068
1259 1 31.30128865 6.80462797 25.85758627
1260 1 27.21851187 5.44370237 21.77480949
1261 1 28.57943746 9.52647915 25.85758627
1262 1 29.94036305 8.16555356 21.77480949
1263 1 28.57943746 6.80462797 23.13573508
1264 1 29.94036305 5.44370237 24.49666068
1265 1 31.30128865 9.52647915 28.57943746
1266 1 27.21851187 8.16555356 29.94036305
1267 1 31.30128865 6.80462797 31.30128864
1268 1 27.21851187 5.44370237 27.21851186
1269 1 28.57943746 9.52647915 31.30128864
1270 1 29.94036305 8.16555356 27.21851186
1271 1 28.57943746 6.80462797 28.57943746
1272 1 29.94036305 5.44370237 29.94036305
1273 1 31.30128865 14.97018153 17.69203271
1274 1 27.21851187 13.60925593 19.05295831
1275 1 31.30128865 12.24833034 20.4138839
1276 1 27.21851187 10.88740475 16.33110712
1277 1 28.57943746 14.97018153 20.4138839
1278 1 29.94036305 13.60925593 16.33110712
1279 1 28.57943746 12.24833034 17.69203271
1280 1 29.94036305 10.88740475 19.05295831
1281 1 31.30128865 14.97018153 23.13573508
1282 1 27.21851187 13.60925593 24.49666068
1283 1 31.30128865 12.24833034 25.85758627
1284 1 27.21851187 10.88740475 21.77480949
1285 1 28.57943746 14.97018153 25.85758627
1286 1 29.94036305 13.60925593 21.77480949
1287 1 28.57943746 12.24833034 23.13573508
1288 1 29.94036305 10.88740475 24.49666068
1289 1 31.30128865 14.97018153 28.57943746
1290 1 27.21851187 13.60925593 29.94036305
1291 1 31.30128865 12.24833034 31.30128864
1292 1 27.21851187 10.88740475 27.21851186
1293 1 28.57943746 14.97018153 31.30128864
1294 1 29.94036305 13.60925593 27.21851186
1295 1 28.57943746 12.24833034 28.57943746
1296 1 29.94036305 10.88740475 29.94036305
1297 1 20.4138839 20.4138839 1.36092559
1298 1 16.33110712 19.05295831 2.72185119
1299 1 20.4138839 17.69203271 4.08277678
1300 1 16.33110712 16.33110712 -1.8e-15
1301 1 17.69203271 20.4138839 4.08277678
1302 1 19.05295831 19.05295831 -2.1e-15
1303 1 17.69203271 17.69203271 1.36092559
1304 1 19.05295831 16.33110712 2.72185119
1305 1 20.4138839 20.4138839 6.80462797
1306 1 16.33110712 19.05295831 8.16555356
1307 1 20.4138839 17.69203271 9.52647915
1308 1 16.33110712 16.33110712 5.44370237
1309 1 17.69203271 20.4138839 9.52647915
1310 1 19.05295831 19.05295831 5.44370237
1311 1 17.69203271 17.69203271 6.80462797
1312 1 19.05295831 16.33110712 8.16555356
1313 1 20.4138839 20.4138839 12.24833034
1314 1 16.33110712 19.05295831 13.60925593
1315 1 20.4138839 17.69203271 14.97018153
1316 1 16.33110712 16.33110712 10.88740475
1317 1 17.69203271 20.4138839 14.97018153
1318 1 19.05295831 19.05295831 10.88740475
1319 1 17.69203271 17.69203271 12.24833034
1320 1 19.05295831 16.33110712 13.60925593
1321 1 20.4138839 25.85758627 1.36092559
1322 1 16.33110712 24.49666068 2.72185119
1323 1 20.4138839 23.13573509 4.08277678
1324 1 16.33110712 21.77480949 -1.21182158e-15
1325 1 17.69203271 25.85758627 4.08277678
1326 1 19.05295831 24.49666068 -1.51182158e-15
1327 1 17.69203271 23.13573509 1.36092559
1328 1 19.05295831 21.77480949 2.72185119
1329 1 20.4138839 25.85758627 6.80462797
1330 1 16.33110712 24.49666068 8.16555356
1331 1 20.4138839 23.13573509 9.52647915
1332 1 16.33110712 21.77480949 5.44370237
1333 1 17.69203271 25.85758627 9.52647915
1334 1 19.05295831 24.49666068 5.44370237
1335 1 17.69203271 23.13573509 6.80462797
1336 1 19.05295831 21.77480949 8.16555356
1337 1 20.4138839 25.85758627 12.24833034
1338 1 16.33110712 24.49666068 13.60925593
1339 1 20.4138839 23.13573509 14.97018153
1340 1 16.33110712 21.77480949 10.88740475
1341 1 17.69203271 25.85758627 14.97018153
1342 1 19.05295831 24.49666068 10.88740475
1343 1 17.69203271 23.13573509 12.24833034
1344 1 19.05295831 21.77480949 13.60925593
1345 1 20.4138839 31.30128864 1.36092559
1346 1 16.33110712 29.94036305 2.72185119
1347 1 20.4138839 28.57943746 4.08277678
1348 1 16.33110712 27.21851186 -1.51182158e-15
1349 1 17.69203271 31.30128864 4.08277678
1350 1 19.05295831 29.94036305 -1.81182158e-15
1351 1 17.69203271 28.57943746 1.36092559
1352 1 19.05295831 27.21851186 2.72185119
1353 1 20.4138839 31.30128864 6.80462797
1354 1 16.33110712 29.94036305 8.16555356
1355 1 20.4138839 28.57943746 9.52647915
1356 1 16.33110712 27.21851186 5.44370237
1357 1 17.69203271 31.30128864 9.52647915
1358 1 19.05295831 29.94036305 5.44370237
1359 1 17.69203271 28.57943746 6.80462797
1360 1 19.05295831 27.21851186 8.16555356
1361 1 20.4138839 31.30128864 12.24833034
1362 1 16.33110712 29.94036305 13.60925593
1363 1 20.4138839 28.57943746 14.97018153
1364 1 16.33110712 27.21851186 10.88740475
1365 1 17.69203271 31.30128864 14.97018153
1366 1 19.05295831 29.94036305 10.88740475
1367 1 17.69203271 28.57943746 12.24833034
1368 1 19.05295831 27.21851186 13.60925593
1369 1 25.85758627 20.4138839 1.36092559
1370 1 21.77480949 19.05295831 2.72185119
1371 1 25.85758627 17.69203271 4.08277678
1372 1 21.77480949 16.33110712 -1.21182158e-15
1373 1 23.13573509 20.4138839 4.08277678
1374 1 24.49666068 19.05295831 -1.51182158e-15
1375 1 23.13573509 17.69203271 1.36092559
1376 1 24.49666068 16.33110712 2.72185119
1377 1 25.85758627 20.4138839 6.80462797
1378 1 21.77480949 19.05295831 8.16555356
1379 1 25.85758627 17.69203271 9.52647915
1380 1 21.77480949 16.33110712 5.44370237
1381 1 23.13573509 20.4138839 9.52647915
1382 1 24.49666068 19.05295831 5.44370237
1383 1 23.13573509 17.69203271 6.80462797
1384 1 24.49666068 16.33110712 8.16555356
1385 1 25.85758627 20.4138839 12.24833034
1386 1 21.77480949 19.05295831 13.60925593
1387 1 25.85758627 17.69203271 14.97018153
1388 1 21.77480949 16.33110712 10.88740475
1389 1 23.13573509 20.4138839 14.97018153
1390 1 24.49666068 19.05295831 10.88740475
1391 1 23.13573509 17.69203271 12.24833034
1392 1 24.49666068 16.33110712 13.60925593
1393 1 25.85758627 25.85758627 1.36092559
1394 1 21.77480949 24.49666068 2.72185119
1395 1 25.85758627 23.13573509 4.08277678
1396 1 21.77480949 21.77480949 -1.51182158e-15
1397 1 23.13573509 25.85758627 4.08277678
1398 1 24.49666068 24.49666068 -1.81182158e-15
1399 1 23.13573509 23.13573509 1.36092559
1400 1 24.49666068 21.77480949 2.72185119
1401 1 25.85758627 25.85758627 6.80462797
1402 1 21.77480949 24.49666068 8.16555356
1403 1 25.85758627 23.13573509 9.52647915
1404 1 21.77480949 21.77480949 5.44370237
1405 1 23.13573509 25.85758627 9.52647915
1406 1 24.49666068 24.49666068 5.44370237
1407 1 23.13573509 23.13573509 6.80462797
1408 1 24.49666068 21.77480949 8.16555356
1409 1 25.85758627 25.85758627 12.24833034
1410 1 21.77480949 24.49666068 13.60925593
1411 1 25.85758627 23.13573509 14.97018153
1412 1 21.77480949 21.77480949 10.88740475
1413 1 23.13573509 25.85758627 14.97018153
1414 1 24.49666068 24.49666068 10.88740475
1415 1 23.13573509 23.13573509 12.24833034
1416 1 24.49666068 21.77480949 13.60925593
1417 1 25.85758627 31.30128864 1.36092559
1418 1 21.77480949 29.94036305 2.72185119
1419 1 25.85758627 28.57943746 4.08277678
1420 1 21.77480949 27.21851186 -1.81182158e-15
1421 1 23.13573509 31.30128864 4.08277678
1422 1 24.49666068 29.94036305 -2.11182158e-15
1423 1 23.13573509 28.57943746 1.36092559
1424 1 24.49666068 27.21851186 2.72185119
1425 1 25.85758627 31.30128864 6.80462797
1426 1 21.77480949 29.94036305 8.16555356
1427 1 25.85758627 28.57943746 9.52647915
1428 1 21.77480949 27.21851186 5.44370237
1429 1 23.13573509 31.30128864 9.52647915
1430 1 24.49666068 29.94036305 5.44370237
1431 1 23.13573509 28.57943746 6.80462797
1432 1 24.49666068 27.21851186 8.16555356
1433 1 25.85758627 31.30128864 12.24833034
1434 1 21.77480949 29.94036305 13.60925593
1435 1 25.85758627 28.57943746 14.97018153
1436 1 21.77480949 27.21851186 10.88740475
1437 1 23.13573509 31.30128864 14.97018153
1438 1 24.49666068 29.94036305 10.88740475
1439 1 23.13573509 28.57943746 12.24833034
1440 1 24.49666068 27.21851186 13.60925593
1441 1 31.30128865 20.4138839 1.36092559
1442 1 27.21851187 19.05295831 2.72185119
1443 1 31.30128865 17.69203271 4.08277678
1444 1 27.21851187 16.33110712 -1.51182158e-15
1445 1 28.57943746 20.4138839 4.08277678
1446 1 29.94036305 19.05295831 -1.81182158e-15
1447 1 28.57943746 17.69203271 1.36092559
1448 1 29.94036305 16.33110712 2.72185119
1449 1 31.30128865 20.4138839 6.80462797
1450 1 27.21851187 19.05295831 8.16555356
1451 1 31.30128865 17.69203271 9.52647915
1452 1 27.21851187 16.33110712 5.44370237
1453 1 28.57943746 20.4138839 9.52647915
1454 1 29.94036305 19.05295831 5.44370237
1455 1 28.57943746 17.69203271 6.80462797
1456 1 29.94036305 16.33110712 8.16555356
1457 1 31.30128865 20.4138839 12.24833034
1458 1 27.21851187 19.05295831 13.60925593
1459 1 31.30128865 17.69203271 14.97018153
1460 1 27.21851187 16.33110712 10.88740475
1461 1 28.57943746 20.4138839 14.97018153
1462 1 29.94036305 19.05295831 10.88740475
1463 1 28.57943746 17.69203271 12.24833034
1464 1 29.94036305 16.33110712 13.60925593
1465 1 31.30128865 25.85758627 1.36092559
1466 1 27.21851187 24.49666068 2.72185119
1467 1 31.30128865 23.13573509 4.08277678
1468 1 27.21851187 21.77480949 -1.81182158e-15
1469 1 28.57943746 25.85758627 4.08277678
1470 1 29.94036305 24.49666068 -2.11182158e-15
1471 1 28.57943746 23.13573509 1.36092559
1472 1 29.94036305 21.77480949 2.72185119
1473 1 31.30128865 25.85758627 6.80462797
1474 1 27.21851187 24.49666068 8.16555356
1475 1 31.30128865 23.13573509 9.52647915
1476 1 27.21851187 21.77480949 5.44370237
1477 1 28.57943746 25.85758627 9.52647915
1478 1 29.94036305 24.49666068 5.44370237
1479 1 28.57943746 23.13573509 6.80462797
1480 1 29.94036305 21.77480949 8.16555356
1481 1 31.30128865 25.85758627 12.24833034
1482 1 27.21851187 24.49666068 13.60925593
1483 1 31.30128865 23.13573509 14.97018153
1484 1 27.21851187 21.77480949 10.88740475
1485 1 28.57943746 25.85758627 14.97018153
1486 1 29.94036305 24.49666068 10.88740475
1487 1 28.57943746 23.13573509 12.24833034
1488 1 29.94036305 21.77480949 13.60925593
1489 1 31.30128865 31.30128864 1.36092559
1490 1 27.21851187 29.94036305 2.72185119
1491 1 31.30128865 28.57943746 4.08277678
1492 1 27.21851187 27.21851186 -1.22364316e-15
1493 1 28.57943746 31.30128864 4.08277678
1494 1 29.94036305 29.94036305 -1.52364316e-15
1495 1 28.57943746 28.57943746 1.36092559
1496 1 29.94036305 27.21851186 2.72185119
1497 1 31.30128865 31.30128864 6.80462797
1498 1 27.21851187 29.94036305 8.16555356
1499 1 31.30128865 28.57943746 9.52647915
1500 1 27.21851187 27.21851186 5.44370237
1501 1 28.57943746 31.30128864 9.52647915
1502 1 29.94036305 29.94036305 5.44370237
1503 1 28.57943746 28.57943746 6.80462797
1504 1 29.94036305 27.21851186 8.16555356
1505 1 31.30128865 31.30128864 12.24833034
1506 1 27.21851187 29.94036305 13.60925593
1507 1 31.30128865 28.57943746 14.97018153
1508 1 27.21851187 27.21851186 10.88740475
1509 1 28.57943746 31.30128864 14.97018153
1510 1 29.94036305 29.94036305 10.88740475
1511 1 28.57943746 28.57943746 12.24833034
1512 1 29.94036305 27.21851186 13.60925593
1513 1 20.4138839 20.4138839 17.69203271
1514 1 16.33110712 19.05295831 19.05295831
1515 1 20.4138839 17.69203271 20.4138839
1516 1 16.33110712 16.33110712 16.33110712
1517 1 17.69203271 20.4138839 20.4138839
1518 1 19.05295831 19.05295831 16.33110712
1519 1 17.69203271 17.69203271 17.69203271
1520 1 19.05295831 16.33110712 19.05295831
1521 1 20.4138839 20.4138839 23.13573508
1522 1 16.33110712 19.05295831 24.49666068
1523 1 20.4138839 17.69203271 25.85758627
1524 1 16.33110712 16.33110712 21.77480949
1525 1 17.69203271 20.4138839 25.85758627
1526 1 19.05295831 19.05295831 21.77480949
1527 1 17.69203271 17.69203271 23.13573508
1528 1 19.05295831 16.33110712 24.49666068
1529 1 20.4138839 20.4138839 28.57943746
1530 1 16.33110712 19.05295831 29.94036305
1531 1 20.4138839 17.69203271 31.30128864
1532 1 16.33110712 16.33110712 27.21851186
1533 1 17.69203271 20.4138839 31.30128864
1534 1 19.05295831 19.05295831 27.21851186
1535 1 17.69203271 17.69203271 28.57943746
1536 1 19.05295831 16.33110712 29.94036305
1537 1 20.4138839 25.85758627 17.69203271
1538 1 16.33110712 24.49666068 19.05295831
1539 1 20.4138839 23.13573509 20.4138839
1540 1 16.33110712 21.77480949 16.33110712
1541 1 17.69203271 25.85758627 20.4138839
1542 1 19.05295831 24.49666068 16.33110712
1543 1 17.69203271 23.13573509 17.69203271
1544 1 19.05295831 21.77480949 19.05295831
1545 1 20.4138839 25.85758627 23.13573508
1546 1 16.33110712 24.49666068 24.49666068
1547 1 20.4138839 23.13573509 25.85758627
1548 1 16.33110712 21.77480949 21.77480949
1549 1 17.69203271 25.85758627 25.85758627
1550 1 19.05295831 24.49666068 21.77480949
1551 1 17.69203271 23.13573509 23.13573508
1552 1 19.05295831 21.77480949 24.49666068
1553 1 20.4138839 25.85758627 28.57943746
1554 1 16.33110712 24.49666068 29.94036305
1555 1 20.4138839 23.13573509 31.30128864
1556 1 16.33110712 21.77480949 27.21851186
1557 1 17.69203271 25.85758627 31.30128864
1558 1 19.05295831 24.49666068 27.21851186
1559 1 17.69203271 23.13573509 28.57943746
1560 1 19.05295831 21.77480949 29.94036305
1561 1 20.4138839 31.30128864 17.69203271
1562 1 16.33110712 29.94036305 19.05295831
1563 1 20.4138839 28.57943746 20.4138839
1564 1 16.33110712 27.21851186 16.33110712
1565 1 17.69203271 31.30128864 20.4138839
1566 1 19.05295831 29.94036305 16.33110712
1567 1 17.69203271 28.57943746 17.69203271
1568 1 19.05295831 27.21851186 19.05295831
1569 1 20.4138839 31.30128864 23.13573508
1570 1 16.33110712 29.94036305 24.49666068
1571 1 20.4138839 28.57943746 25.85758627
1572 1 16.33110712 27.21851186 21.77480949
1573 1 17.69203271 31.30128864 25.85758627
1574 1 19.05295831 29.94036305 21.77480949
1575 1 17.69203271 28.57943746 23.13573508
1576 1 19.05295831 27.21851186 24.49666068
1577 1 20.4138839 31.30128864 28.57943746
1578 1 16.33110712 29.94036305 29.94036305
1579 1 20.4138839 28.57943746 31.30128864
1580 1 16.33110712 27.21851186 27.21851186
1581 1 17.69203271 31.30128864 31.30128864
1582 1 19.05295831 29.94036305 27.21851186
1583 1 17.69203271 28.57943746 28.57943746
1584 1 19.05295831 27.21851186 29.94036305
1585 1 25.85758627 20.4138839 17.69203271
1586 1 21.77480949 19.05295831 19.05295831
1587 1 25.85758627 17.69203271 20.4138839
1588 1 21.77480949 16.33110712 16.33110712
1589 1 23.13573509 20.4138839 20.4138839
1590 1 24.49666068 19.05295831 16.33110712
1591 1 23.13573509 17.69203271 17.69203271
1592 1 24.49666068 16.33110712 19.05295831
1593 1 25.85758627 20.4138839 23.13573508
1594 1 21.77480949 19.05295831 24.49666068
1595 1 25.85758627 17.69203271 25.85758627
1596 1 21.77480949 16.33110712 21.77480949
1597 1 23.13573509 20.4138839 25.85758627
1598 1 24.49666068 19.05295831 21.77480949
1599 1 23.13573509 17.69203271 23.13573508
1600 1 24.49666068 16.33110712 24.49666068
1601 1 25.85758627 20.4138839 28.57943746
1602 1 21.77480949 19.05295831 29.94036305
1603 1 25.85758627 17.69203271 31.30128864
1604 1 21.77480949 16.33110712 27.21851186
1605 1 23.13573509 20.4138839 31.30128864
1606 1 24.49666068 19.05295831 27.21851186
1607 1 23.13573509 17.69203271 28.57943746
1608 1 24.49666068 16.33110712 29.94036305
1609 1 25.85758627 25.85758627 17.69203271
1610 1 21.77480949 24.49666068 19.05295831
1611 1 25.85758627 23.13573509 20.4138839
1612 1 21.77480949 21.77480949 16.33110712
1613 1 23.13573509 25.85758627 20.4138839
1614 1 24.49666068 24.49666068 16.33110712
1615 1 23.13573509 23.13573509 17.69203271
1616 1 24.49666068 21.77480949 19.05295831
1617 1 25.85758627 25.85758627 23.13573508
1618 1 21.77480949 24.49666068 24.49666068
1619 1 25.85758627 23.13573509 25.85758627
1620 1 21.77480949 21.77480949 21.77480949
1621 1 23.13573509 25.85758627 25.85758627
1622 1 24.49666068 24.49666068 21.77480949
1623 1 23.13573509 23.13573509 23.13573508
1624 1 24.49666068 21.77480949 24.49666068
1625 1 25.85758627 25.85758627 28.57943746
1626 1 21.77480949 24.49666068 29.94036305
1627 1 25.85758627 23.13573509 31.30128864
1628 1 21.77480949 21.77480949 27.21851186
1629 1 23.13573509 25.85758627 31.30128864
1630 1 24.49666068 24.49666068 27.21851186
1631 1 23.13573509 23.13573509 28.57943746
1632 1 24.49666068 21.77480949 29.94036305
1633 1 25.85758627 31.30128864 17.69203271
1634 1 21.77480949 29.94036305 19.05295831
1635 1 25.85758627 28.57943746 20.4138839
1636 1 21.77480949 27.21851186 16.33110712
1637 1 23.13573509 31.30128864 20.4138839
1638 1 24.49666068 29.94036305 16.33110712
1639 1 23.13573509 28.57943746 17.69203271
1640 1 24.49666068 27.21851186 19.05295831
1641 1 25.85758627 31.30128864 23.13573508
1642 1 21.77480949 29.94036305 24.49666068
1643 1 25.85758627 28.57943746 25.85758627
1644 1 21.77480949 27.21851186 21.77480949
1645 1 23.13573509 31.30128864 25.85758627
1646 1 24.49666068 29.94036305 21.77480949
1647 1 23.13573509 28.57943746 23.13573508
1648 1 24.49666068 27.21851186 24.49666068
1649 1 25.85758627 31.30128864 28.57943746
1650 1 21.77480949 29.94036305 29.94036305
1651 1 25.85758627 28.57943746 31.30128864
1652 1 21.77480949 27.21851186 27.21851186
1653 1 23.13573509 31.30128864 31.30128864
1654 1 24.49666068 29.94036305 27.21851186
1655 1 23.13573509 28.57943746 28.57943746
1656 1 24.49666068 27.21851186 29.94036305
1657 1 31.30128865 20.4138839 17.69203271
1658 1 27.21851187 19.05295831 19.05295831
1659 1 31.30128865 17.69203271 20.4138839
1660 1 27.21851187 16.33110712 16.33110712
1661 1 28.57943746 20.4138839 20.4138839
1662 1 29.94036305 19.05295831 16.33110712
1663 1 28.57943746 17.69203271 17.69203271
1664 1 29.94036305 16.33110712 19.05295831
1665 1 31.30128865 20.4138839 23.13573508
1666 1 27.21851187 19.05295831 24.49666068
1667 1 31.30128865 17.69203271 25.85758627
1668 1 27.21851187 16.33110712 21.77480949
1669 1 28.57943746 20.4138839 25.85758627
1670 1 29.94036305 19.05295831 21.77480949
1671 1 28.57943746 17.69203271 23.13573508
1672 1 29.94036305 16.33110712 24.49666068
1673 1 31.30128865 20.4138839 28.57943746
1674 1 27.21851187 19.05295831 29.94036305
1675 1 31.30128865 17.69203271 31.30128864
1676 1 27.21851187 16.33110712 27.21851186
1677 1 28.57943746 20.4138839 31.30128864
1678 1 29.94036305 19.05295831 27.21851186
1679 1 28.57943746 17.69203271 28.57943746
1680 1 29.94036305 16.33110712 29.94036305
1681 1 31.30128865 25.85758627 17.69203271
1682 1 27.21851187 24.49666068 19.05295831
1683 1 31.30128865 23.13573509 20.4138839
1684 1 27.21851187 21.77480949 16.33110712
1685 1 28.57943746 25.85758627 20.4138839
1686 1 29.94036305 24.49666068 16.33110712
1687 1 28.57943746 23.13573509 17.69203271
1688 1 29.94036305 21.77480949 19.05295831
1689 1 31.30128865 25.85758627 23.13573508
1690 1 27.21851187 24.49666068 24.49666068
1691 1 31.30128865 23.13573509 25.85758627
1692 1 27.21851187 21.77480949 21.77480949
1693 1 28.57943746 25.85758627 25.85758627
1694 1 29.94036305 24.49666068 21.77480949
1695 1 28.57943746 23.13573509 23.13573508
1696 1 29.94036305 21.77480949 24.49666068
1697 1 31.30128865 25.85758627 28.57943746
1698 1 27.21851187 24.49666068 29.94036305
1699 1 31.30128865 23.13573509 31.30128864
1700 1 27.21851187 21.77480949 27.21851186
1701 1 28.57943746 25.85758627 31.30128864
1702 1 29.94036305 24.49666068 27.21851186
1703 1 28.57943746 23.13573509 28.57943746
1704 1 29.94036305 21.77480949 29.94036305
1705 1 31.30128865 31.30128864 17.69203271
1706 1 27.21851187 29.94036305 19.05295831
1707 1 31.30128865 28.57943746 20.4138839
1708 1 27.21851187 27.21851186 16.33110712
1709 1 28.57943746 31.30128864 20.4138839
1710 1 29.94036305 29.94036305 16.33110712
1711 1 28.57943746 28.57943746 17.69203271
1712 1 29.94036305 27.21851186 19.05295831
1713 1 31.30128865 31.30128864 23.13573508
1714 1 27.21851187 29.94036305 24.49666068
1715 1 31.30128865 28.57943746 25.85758627
1716 1 27.21851187 27.21851186 21.77480949
1717 1 28.57943746 31.30128864 25.85758627
1718 1 29.94036305 29.94036305 21.77480949
1719 1 28.57943746 28.57943746 23.13573508
1720 1 29.94036305 27.21851186 24.49666068
1721 1 31.30128865 31.30128864 28.57943746
1722 1 27.21851187 29.94036305 29.94036305
1723 1 31.30128865 28.57943746 31.30128864
1724 1 27.21851187 27.21851186 27.21851186
1725 1 28.57943746 31.30128864 31.30128864
1726 1 29.94036305 29.94036305 27.21851186
1727 1 28.57943746 28.57943746 28.57943746
1728 1 29.94036305 27.21851186 29.94036305
1729 1 36.74499102 4.08277678 1.36092559
1730 1 32.66221424 2.72185119 2.72185119
1731 1 36.74499102 1.36092559 4.08277678
1732 1 32.66221424 -2.18952885e-47 -1.8e-15
1733 1 34.02313983 4.08277678 4.08277678
1734 1 35.38406543 2.72185119 -2.1e-15
1735 1 34.02313983 1.36092559 1.36092559
1736 1 35.38406543 1.5e-16 2.72185119
1737 1 36.74499102 4.08277678 6.80462797
1738 1 32.66221424 2.72185119 8.16555356
1739 1 36.74499102 1.36092559 9.52647915
1740 1 32.66221424 3.0e-16 5.44370237
1741 1 34.02313983 4.08277678 9.52647915
1742 1 35.38406543 2.72185119 5.44370237
1743 1 34.02313983 1.36092559 6.80462797
1744 1 35.38406543 4.5e-16 8.16555356
1745 1 36.74499102 4.08277678 12.24833034
1746 1 32.66221424 2.72185119 13.60925593
1747 1 36.74499102 1.36092559 14.97018153
1748 1 32.66221424 6.0e-16 10.88740475
1749 1 34.02313983 4.08277678 14.97018153
1750 1 35.38406543 2.72185119 10.88740475
1751 1 34.02313983 1.36092559 12.24833034
1752 1 35.38406543 7.5e-16 13.60925593
1753 1 36.74499102 9.52647915 1.36092559
1754 1 32.66221424 8.16555356 2.72185119
1755 1 36.74499102 6.80462797 4.08277678
1756 1 32.66221424 5.44370237 -1.21182158e-15
1757 1 34.02313983 9.52647915 4.08277678
1758 1 35.38406543 8.16555356 -1.51182158e-15
1759 1 34.02313983 6.80462797 1.36092559
1760 1 35.38406543 5.44370237 2.72185119
1761 1 36.74499102 9.52647915 6.80462797
1762 1 32.66221424 8.16555356 8.16555356
1763 1 36.74499102 6.80462797 9.52647915
1764 1 32.66221424 5.44370237 5.44370237
1765 1 34.02313983 9.52647915 9.52647915
1766 1 35.38406543 8.16555356 5.44370237
1767 1 34.02313983 6.80462797 6.80462797
1768 1 35.38406543 5.44370237 8.16555356
1769 1 36.74499102 9.52647915 12.24833034
1770 1 32.66221424 8.16555356 13.60925593
1771 1 36.74499102 6.80462797 14.97018153
1772 1 32.66221424 5.44370237 10.88740475
1773 1 34.02313983 9.52647915 14.97018153
1774 1 35.38406543 8.16555356 10.88740475
1775 1 34.02313983 6.80462797 12.24833034
1776 1 35.38406543 5.44370237 13.60925593
1777 1 36.74499102 14.97018153 1.36092559
1778 1 32.66221424 13.60925593 2.72185119
1779 1 36.74499102 12.24833034 4.08277678
1780 1 32.66221424 10.88740475 -1.51182158e-15
1781 1 34.02313983 14.97018153 4.08277678
1782 1 35.38406543 13.60925593 -1.81182158e-15
1783 1 34.02313983 12.24833034 1.36092559
1784 1 35.38406543 10.88740475 2.72185119
1785 1 36.74499102 14.97018153 6.80462797
1786 1 32.66221424 13.60925593 8.16555356
1787 1 36.74499102 12.24833034 9.52647915
1788 1 32.66221424 10.88740475 5.44370237
1789 1 34.02313983 14.97018153 9.52647915
1790 1 35.38406543 13.60925593 5.44370237
1791 1 34.02313983 12.24833034 6.80462797
1792 1 35.38406543 10.88740475 8.16555356
1793 1 36.74499102 14.97018153 12.24833034
1794 1 32.66221424 13.60925593 13.60925593
1795 1 36.74499102 12.24833034 14.97018153
1796 1 32.66221424 10.88740475 10.88740475
1797 1 34.02313983 14.97018153 14.97018153
1798 1 35.38406543 13.60925593 10.88740475
1799 1 34.02313983 12.24833034 12.24833034
1800 1 35.38406543 10.88740475 13.60925593
1801 1 42.18869339 4.08277678 1.36092559
1802 1 38.10591661 2.72185119 2.72185119
1803 1 42.18869339 1.36092559 4.08277678
1804 1 38.10591661 3.24142493e-32 -1.21182158e-15
1805 1 39.46684221 4.08277678 4.08277678
1806 1 40.8277678 2.72185119 -1.51182158e-15
1807 1 39.46684221 1.36092559 1.36092559
1808 1 40.8277678 1.5e-16 2.72185119
1809 1 42.18869339 4.08277678 6.80462797
1810 1 38.10591661 2.72185119 8.16555356
1811 1 42.18869339 1.36092559 9.52647915
1812 1 38.10591661 3.0e-16 5.44370237
1813 1 39.46684221 4.08277678 9.52647915
1814 1 40.8277678 2.72185119 5.44370237
1815 1 39.46684221 1.36092559 6.80462797
1816 1 40.8277678 4.5e-16 8.16555356
1817 1 42.18869339 4.08277678 12.24833034
1818 1 38.10591661 2.72185119 13.60925593
1819 1 42.18869339 1.36092559 14.97018153
1820 1 38.10591661 6.0e-16 10.88740475
1821 1 39.46684221 4.08277678 14.97018153
1822 1 40.8277678 2.72185119 10.88740475
1823 1 39.46684221 1.36092559 12.24833034
1824 1 40.8277678 7.5e-16 13.60925593
1825 1 42.18869339 9.52647915 1.36092559
1826 1 38.10591661 8.16555356 2.72185119
1827 1 42.18869339 6.80462797 4.08277678
1828 1 38.10591661 5.44370237 -1.51182158e-15
1829 1 39.46684221 9.52647915 4.08277678
1830 1 40.8277678 8.16555356 -1.81182158e-15
1831 1 39.46684221 6.80462797 1.36092559
1832 1 40.8277678 5.44370237 2.72185119
1833 1 42.18869339 9.52647915 6.80462797
1834 1 38.10591661 8.16555356 8.16555356
1835 1 42.18869339 6.80462797 9.52647915
1836 1 38.10591661 5.44370237 5.44370237
1837 1 39.46684221 9.52647915 9.52647915
1838 1 40.8277678 8.16555356 5.44370237
1839 1 39.46684221 6.80462797 6.80462797
1840 1 40.8277678 5.44370237 8.16555356
1841 1 42.18869339 9.52647915 12.24833034
1842 1 38.10591661 8.16555356 13.60925593
1843 1 42.18869339 6.80462797 14.97018153
1844 1 38.10591661 5.44370237 10.88740475
1845 1 39.46684221 9.52647915 14.97018153
1846 1 40.8277678 8.16555356 10.88740475
1847 1 39.46684221 6.80462797 12.24833034
1848 1 40.8277678 5.44370237 13.60925593
1849 1 42.18869339 14.97018153 1.36092559
1850 1 38.10591661 13.60925593 2.72185119
1851 1 42.18869339 12.24833034 4.08277678
1852 1 38.10591661 10.88740475 -1.81182158e-15
1853 1 39.46684221 14.97018153 4.08277678
1854 1 40.8277678 13.60925593 -2.11182158e-15
1855 1 39.46684221 12.24833034 1.36092559
1856 1 40.8277678 10.88740475 2.72185119
1857 1 42.18869339 14.97018153 6.80462797
1858 1 38.10591661 13.60925593 8.16555356
1859 1 42.18869339 12.24833034 9.52647915
1860 1 38.10591661 10.88740475 5.44370237
1861 1 39.46684221 14.97018153 9.52647915
1862 1 40.8277678 13.60925593 5.44370237
1863 1 39.46684221 12.24833034 6.80462797
1864 1 40.8277678 10.88740475 8.16555356
1865 1 42.18869339 14.97018153 12.24833034
1866 1 38.10591661 13.60925593 13.60925593
1867 1 42.18869339 12.24833034 14.97018153
1868 1 38.10591661 10.88740475 10.88740475
1869 1 39.46684221 14.97018153 14.97018153
1870 1 40.8277678 13.60925593 10.88740475
1871 1 39.46684221 12.24833034 12.24833034
1872 1 40.8277678 10.88740475 13.60925593
1873 1 47.63239577 4.08277678 1.36092559
1874 1 43.54961899 2.72185119 2.72185119
1875 1 47.63239577 1.36092559 4.08277678
1876 1 43.54961899 1.58813837e-32 -1.51182158e-15
1877 1 44.91054458 4.08277678 4.08277678
1878 1 46.27147017 2.72185119 -1.81182158e-15
1879 1 44.91054458 1.36092559 1.36092559
1880 1 46.27147017 1.5e-16 2.72185119
1881 1 47.63239577 4.08277678 6.80462797
1882 1 43.54961899 2.72185119 8.16555356
1883 1 47.63239577 1.36092559 9.52647915
1884 1 43.54961899 3.0e-16 5.44370237
1885 1 44.91054458 4.08277678 9.52647915
1886 1 46.27147017 2.72185119 5.44370237
1887 1 44.91054458 1.36092559 6.80462797
1888 1 46.27147017 4.5e-16 8.16555356
1889 1 47.63239577 4.08277678 12.24833034
1890 1 43.54961899 2.72185119 13.60925593
1891 1 47.63239577 1.36092559 14.97018153
1892 1 43.54961899 6.0e-16 10.88740475
1893 1 44.91054458 4.08277678 14.97018153
1894 1 46.27147017 2.72185119 10.88740475
1895 1 44.91054458 1.36092559 12.24833034
1896 1 46.27147017 7.5e-16 13.60925593
1897 1 47.63239577 9.52647915 1.36092559
1898 1 43.54961899 8.16555356 2.72185119
1899 1 47.63239577 6.80462797 4.08277678
1900 1 43.54961899 5.44370237 -1.81182158e-15
1901 1 44.91054458 9.52647915 4.08277678
1902 1 46.27147017 8.16555356 -2.11182158e-15
1903 1 44.91054458 6.80462797 1.36092559
1904 1 46.27147017 5.44370237 2.72185119
1905 1 47.63239577 9.52647915 6.80462797
1906 1 43.54961899 8.16555356 8.16555356
1907 1 47.63239577 6.80462797 9.52647915
1908 1 43.54961899 5.44370237 5.44370237
1909 1 44.91054458 9.52647915 9.52647915
1910 1 46.27147017 8.16555356 5.44370237
1911 1 44.91054458 6.80462797 6.80462797
1912 1 46.27147017 5.44370237 8.16555356
1913 1 47.63239577 9.52647915 12.24833034
1914 1 43.54961899 8.16555356 13.60925593
1915 1 47.63239577 6.80462797 14.97018153
1916 1 43.54961899 5.44370237 10.88740475
1917 1 44.91054458 9.52647915 14.97018153
1918 1 46.27147017 8.16555356 10.88740475
1919 1 44.91054458 6.80462797 12.24833034
1920 1 46.27147017 5.44370237 13.60925593
1921 1 47.63239577 14.97018153 1.36092559
1922 1 43.54961899 13.60925593 2.72185119
1923 1 47.63239577 12.24833034 4.08277678
1924 1 43.54961899 10.88740475 -1.22364316e-15
1925 1 44.91054458 14.97018153 4.08277678
1926 1 46.27147017 13.60925593 -1.52364316e-15
1927 1 44.91054458 12.24833034 1.36092559
1928 1 46.27147017 10.88740475 2.72185119
1929 1 47.63239577 14.97018153 6.80462797
1930 1 43.54961899 13.60925593 8.16555356
1931 1 47.63239577 12.24833034 9.52647915
1932 1 43.54961899 10.88740475 5.44370237
1933 1 44.91054458 14.97018153 9.52647915
1934 1 46.27147017 13.60925593 5.44370237
1935 1 44.91054458 12.24833034 6.80462797
1936 1 46.27147017 10.88740475 8.16555356
1937 1 47.63239577 14.97018153 12.24833034
1938 1 43.54961899 13.60925593 13.60925593
1939 1 47.63239577 12.24833034 14.97018153
1940 1 43.54961899 10.88740475 10.88740475
1941 1 44.91054458 14.97018153 14.97018153
1942 1 46.27147017 13.60925593 10.88740475
1943 1 44.91054458 12.24833034 12.24833034
1944 1 46.27147017 10.88740475 13.60925593
1945 1 36.74499102 4.08277678 17.69203271
1946 1 32.66221424 2.72185119 19.05295831
1947 1 36.74499102 1.36092559 20.4138839
1948 1 32.66221424 9.0e-16 16.33110712
1949 1 34.02313983 4.08277678 20.4138839
1950 1 35.38406543 2.72185119 16.33110712
1951 1 34.02313983 1.36092559 17.69203271
1952 1 35.38406543 1.05e-15 19.05295831
1953 1 36.74499102 4.08277678 23.13573508
1954 1 32.66221424 2.72185119 24.49666068
1955 1 36.74499102 1.36092559 25.85758627
1956 1 32.66221424 1.2e-15 21.77480949
1957 1 34.02313983 4.08277678 25.85758627
1958 1 35.38406543 2.72185119 21.77480949
1959 1 34.02313983 1.36092559 23.13573508
1960 1 35.38406543 1.35e-15 24.49666068
1961 1 36.74499102 4.08277678 28.57943746
1962 1 32.66221424 2.72185119 29.94036305
1963 1 36.74499102 1.36092559 31.30128864
1964 1 32.66221424 1.5e-15 27.21851186
1965 1 34.02313983 4.08277678 31.30128864
1966 1 35.38406543 2.72185119 27.21851186
1967 1 34.02313983 1.36092559 28.57943746
1968 1 35.38406543 1.65e-15 29.94036305
1969 1 36.74499102 9.52647915 17.69203271
1970 1 32.66221424 8.16555356 19.05295831
1971 1 36.74499102 6.80462797 20.4138839
1972 1 32.66221424 5.44370237 16.33110712
1973 1 34.02313983 9.52647915 20.4138839
1974 1 35.38406543 8.16555356 16.33110712
1975 1 34.02313983 6.80462797 17.69203271
1976 1 35.38406543 5.44370237 19.05295831
1977 1 36.74499102 9.52647915 23.13573508
1978 1 32.66221424 8.16555356 24.49666068
1979 1 36.74499102 6.80462797 25.85758627
1980 1 32.66221424 5.44370237 21.77480949
1981 1 34.02313983 9.52647915 25.85758627
1982 1 35.38406543 8.16555356 21.77480949
1983 1 34.02313983 6.80462797 23.13573508
1984 1 35.38406543 5.44370237 24.49666068
1985 1 36.74499102 9.52647915 28.57943746
1986 1 32.66221424 8.16555356 29.94036305
1987 1 36.74499102 6.80462797 31.30128864
1988 1 32.66221424 5.44370237 27.21851186
1989 1 34.02313983 9.52647915 31.30128864
1990 1 35.38406543 8.16555356 27.21851186
1991 1 34.02313983 6.80462797 28.57943746
1992 1 35.38406543 5.44370237 29.94036305
1993 1 36.74499102 14.97018153 17.69203271
1994 1 32.66221424 13.60925593 19.05295831
1995 1 36.74499102 12.24833034 20.4138839
1996 1 32.66221424 10.88740475 16.33110712
1997 1 34.02313983 14.97018153 20.4138839
1998 1 35.38406543 13.60925593 16.33110712
1999 1 34.02313983 12.24833034 17.69203271
2000 1 35.38406543 10.88740475 19.05295831
2001 1 36.74499102 14.97018153 23.13573508
2002 1 32.66221424 13.60925593 24.49666068
2003 1 36.74499102 12.24833034 25.85758627
2004 1 32.66221424 10.88740475 21.77480949
2005 1 34.02313983 14.97018153 25.85758627
2006 1 35.38406543 13.60925593 21.77480949
2007 1 34.02313983 12.24833034 23.13573508
2008 1 35.38406543 10.88740475 24.49666068
2009 1 36.74499102 14.97018153 28.57943746
2010 1 32.66221424 13.60925593 29.94036305
2011 1 36.74499102 12.24833034 31.30128864
2012 1 32.66221424 10.88740475 27.21851186
2013 1 34.02313983 14.97018153 31.30128864
2014 1 35.38406543 13.60925593 27.21851186
2015 1 34.02313983 12.24833034 28.57943746
2016 1 35.38406543 10.88740475 29.94036305
2017 1 42.18869339 4.08277678 17.69203271
2018 1 38.10591661 2.72185119 19.05295831
2019 1 42.18869339 1.36092559 20.4138839
2020 1 38.10591661 9.0e-16 16.33110712
2021 1 39.46684221 4.08277678 20.4138839
2022 1 40.8277678 2.72185119 16.33110712
2023 1 39.46684221 1.36092559 17.69203271
2024 1 40.8277678 1.05e-15 19.05295831
2025 1 42.18869339 4.08277678 23.13573508
2026 1 38.10591661 2.72185119 24.49666068
2027 1 42.18869339 1.36092559 25.85758627
2028 1 38.10591661 1.2e-15 21.77480949
2029 1 39.46684221 4.08277678 25.85758627
2030 1 40.8277678 2.72185119 21.77480949
2031 1 39.46684221 1.36092559 23.13573508
2032 1 40.8277678 1.35e-15 24.49666068
2033 1 42.18869339 4.08277678 28.57943746
2034 1 38.10591661 2.72185119 29.94036305
2035 1 42.18869339 1.36092559 31.30128864
2036 1 38.10591661 1.5e-15 27.21851186
2037 1 39.46684221 4.08277678 31.30128864
2038 1 40.8277678 2.72185119 27.21851186
2039 1 39.46684221 1.36092559 28.57943746
2040 1 40.8277678 1.65e-15 29.94036305
2041 1 42.18869339 9.52647915 17.69203271
2042 1 38.10591661 8.16555356 19.05295831
2043 1 42.18869339 6.80462797 20.4138839
2044 1 38.10591661 5.44370237 16.33110712
2045 1 39.46684221 9.52647915 20.4138839
2046 1 40.8277678 8.16555356 16.33110712
2047 1 39.46684221 6.80462797 17.69203271
2048 1 40.8277678 5.44370237 19.05295831
2049 1 42.18869339 9.52647915 23.13573508
2050 1 38.10591661 8.16555356 24.49666068
2051 1 42.18869339 6.80462797 25.85758627
2052 1 38.10591661 5.44370237 21.77480949
2053 1 39.46684221 9.52647915 25.85758627
2054 1 40.8277678 8.16555356 21.77480949
2055 1 39.46684221 6.80462797 23.13573508
2056 1 40.8277678 5.44370237 24.49666068
2057 1 42.18869339 9.52647915 28.57943746
2058 1 38.10591661 8.16555356 29.94036305
2059 1 42.18869339 6.80462797 31.30128864
2060 1 38.10591661 5.44370237 27.21851186
2061 1 39.46684221 9.52647915 31.30128864
2062 1 40.8277678 8.16555356 27.21851186
2063 1 39.46684221 6.80462797 28.57943746
2064 1 40.8277678 5.44370237 29.94036305
2065 1 42.18869339 14.97018153 17.69203271
2066 1 38.10591661 13.60925593 19.05295831
2067 1 42.18869339 12.24833034 20.4138839
2068 1 38.10591661 10.88740475 16.33110712
2069 1 39.46684221 14.97018153 20.4138839
2070 1 40.8277678 13.60925593 16.33110712
2071 1 39.46684221 12.24833034 17.69203271
2072 1 40.8277678 10.88740475 19.05295831
2073 1 42.18869339 14.97018153 23.13573508
2074 1 38.10591661 13.60925593 24.49666068
2075 1 42.18869339 12.24833034 25.85758627
2076 1 38.10591661 10.88740475 21.77480949
2077 1 39.46684221 14.97018153 25.85758627
2078 1 40.8277678 13.60925593 21.77480949
2079 1 39.46684221 12.24833034 23.13573508
2080 1 40.8277678 10.88740475 24.49666068
2081 1 42.18869339 14.97018153 28.57943746
2082 1 38.10591661 13.60925593 29.94036305
2083 1 42.18869339 12.24833034 31.30128864
2084 1 38.10591661 10.88740475 27.21851186
2085 1 39.46684221 14.97018153 31.30128864
2086 1 40.8277678 13.60925593 27.21851186
2087 1 39.46684221 12.24833034 28.57943746
2088 1 40.8277678 10.88740475 29.94036305
2089 1 47.63239577 4.08277678 17.69203271
2090 1 43.54961899 2.72185119 19.05295831
2091 1 47.63239577 1.36092559 20.4138839
2092 1 43.54961899 9.0e-16 16.33110712
2093 1 44.91054458 4.08277678 20.4138839
2094 1 46.27147017 2.72185119 16.33110712
2095 1 44.91054458 1.36092559 17.69203271
2096 1 46.27147017 1.05e-15 19.05295831
2097 1 47.63239577 4.08277678 23.13573508
2098 1 43.54961899 2.72185119 24.49666068
2099 1 47.63239577 1.36092559 25.85758627
2100 1 43.54961899 1.2e-15 21.77480949
2101 1 44.91054458 4.08277678 25.85758627
2102 1 46.27147017 2.72185119 21.77480949
2103 1 44.91054458 1.36092559 23.13573508
2104 1 46.27147017 1.35e-15 24.49666068
2105 1 47.63239577 4.08277678 28.57943746
2106 1 43.54961899 2.72185119 29.94036305
2107 1 47.63239577 1.36092559 31.30128864
2108 1 43.54961899 1.5e-15 27.21851186
2109 1 44.91054458 4.08277678 31.30128864
2110 1 46.27147017 2.72185119 27.21851186
2111 1 44.91054458 1.36092559 28.57943746
2112 1 46.27147017 1.65e-15 29.94036305
2113 1 47.63239577 9.52647915 17.69203271
2114 1 43.54961899 8.16555356 19.05295831
2115 1 47.63239577 6.80462797 20.4138839
2116 1 43.54961899 5.44370237 16.33110712
2117 1 44.91054458 9.52647915 20.4138839
2118 1 46.27147017 8.16555356 16.33110712
2119 1 44.91054458 6.80462797 17.69203271
2120 1 46.27147017 5.44370237 19.05295831
2121 1 47.63239577 9.52647915 23.13573508
2122 1 43.54961899 8.16555356 24.49666068
2123 1 47.63239577 6.80462797 25.85758627
2124 1 43.54961899 5.44370237 21.77480949
2125 1 44.91054458 9.52647915 25.85758627
2126 1 46.27147017 8.16555356 21.77480949
2127 1 44.91054458 6.80462797 23.13573508
2128 1 46.27147017 5.44370237 24.49666068
2129 1 47.63239577 9.52647915 28.57943746
2130 1 43.54961899 8.16555356 29.94036305
2131 1 47.63239577 6.80462797 31.30128864
2132 1 43.54961899 5.44370237 27.21851186
2133 1 44.91054458 9.52647915 31.30128864
2134 1 46.27147017 8.16555356 27.21851186
2135 1 44.91054458 6.80462797 28.57943746
2136 1 46.27147017 5.44370237 29.94036305
2137 1 47.63239577 14.97018153 17.69203271
2138 1 43.54961899 13.60925593 19.05295831
2139 1 47.63239577 12.24833034 20.4138839
2140 1 43.54961899 10.88740475 16.33110712
2141 1 44.91054458 14.97018153 20.4138839
2142 1 46.27147017 13.60925593 16.33110712
2143 1 44.91054458 12.24833034 17.69203271
2144 1 46.27147017 10.88740475 19.05295831
2145 1 47.63239577 14.97018153 23.13573508
2146 1 43.54961899 13.60925593 24.49666068
2147 1 47.63239577 12.24833034 25.85758627
2148 1 43.54961899 10.88740475 21.77480949
2149 1 44.91054458 14.97018153 25.85758627
2150 1 46.27147017 13.60925593 21.77480949
2151 1 44.91054458 12.24833034 23.13573508
2152 1 46.27147017 10.88740475 24.49666068
2153 1 47.63239577 14.97018153 28.57943746
2154 1 43.54961899 13.60925593 29.94036305
2155 1 47.63239577 12.24833034 31.30128864
2156 1 43.54961899 10.88740475 27.21851186
2157 1 44.91054458 14.97018153 31.30128864
2158 1 46.27147017 13.60925593 27.21851186
2159 1 44.91054458 12.24833034 28.57943746
2160 1 46.27147017 10.88740475 29.94036305
2161 1 36.74499102 20.4138839 1.36092559
2162 1 32.66221424 19.05295831 2.72185119
2163 1 36.74499102 17.69203271 4.08277678
2164 1 32.66221424 16.33110712 -1.8e-15
2165 1 34.02313983 20.4138839 4.08277678
2166 1 35.38406543 19.05295831 -2.1e-15
2167 1 34.02313983 17.69203271 1.36092559
2168 1 35.38406543 16.33110712 2.72185119
2169 1 36.74499102 20.4138839 6.80462797
2170 1 32.66221424 19.05295831 8.16555356
2171 1 36.74499102 17.69203271 9.52647915
2172 1 32.66221424 16.33110712 5.44370237
2173 1 34.02313983 20.4138839 9.52647915
2174 1 35.38406543 19.05295831 5.44370237
2175 1 34.02313983 17.69203271 6.80462797
2176 1 35.38406543 16.33110712 8.16555356
2177 1 36.74499102 20.4138839 12.24833034
2178 1 32.66221424 19.05295831 13.60925593
2179 1 36.74499102 17.69203271 14.97018153
2180 1 32.66221424 16.33110712 10.88740475
2181 1 34.02313983 20.4138839 14.97018153
2182 1 35.38406543 19.05295831 10.88740475
2183 1 34.02313983 17.69203271 12.24833034
2184 1 35.38406543 16.33110712 13.60925593
2185 1 36.74499102 25.85758627 1.36092559
2186 1 32.66221424 24.49666068 2.72185119
2187 1 36.74499102 23.13573509 4.08277678
2188 1 32.66221424 21.77480949 -1.21182158e-15
2189 1 34.02313983 25.85758627 4.08277678
2190 1 35.38406543 24.49666068 -1.51182158e-15
2191 1 34.02313983 23.13573509 1.36092559
2192 1 35.38406543 21.77480949 2.72185119
2193 1 36.74499102 25.85758627 6.80462797
2194 1 32.66221424 24.49666068 8.16555356
2195 1 36.74499102 23.13573509 9.52647915
2196 1 32.66221424 21.77480949 5.44370237
2197 1 34.02313983 25.85758627 9.52647915
2198 1 35.38406543 24.49666068 5.44370237
2199 1 34.02313983 23.13573509 6.80462797
2200 1 35.38406543 21.77480949 8.16555356
2201 1 36.74499102 25.85758627 12.24833034
2202 1 32.66221424 24.49666068 13.60925593
2203 1 36.74499102 23.13573509 14.97018153
2204 1 32.66221424 21.77480949 10.88740475
2205 1 34.02313983 25.85758627 14.97018153
2206 1 35.38406543 24.49666068 10.88740475
2207 1 34.02313983 23.13573509 12.24833034
2208 1 35.38406543 21.77480949 13.60925593
2209 1 36.74499102 31.30128864 1.36092559
2210 1 32.66221424 29.94036305 2.72185119
2211 1 36.74499102 28.57943746 4.08277678
2212 1 32.66221424 27.21851186 -1.51182158e-15
2213 1 34.02313983 31.30128864 4.08277678
2214 1 35.38406543 29.94036305 -1.81182158e-15
2215 1 34.02313983 28.57943746 1.36092559
2216 1 35.38406543 27.21851186 2.72185119
2217 1 36.74499102 31.30128864 6.80462797
2218 1 32.66221424 29.94036305 8.16555356
2219 1 36.74499102 28.57943746 9.52647915
2220 1 32.66221424 27.21851186 5.44370237
2221 1 34.02313983 31.30128864 9.52647915
2222 1 35.38406543 29.94036305 5.44370237
2223 1 34.02313983 28.57943746 6.80462797
2224 1 35.38406543 27.21851186 8.16555356
2225 1 36.74499102 31.30128864 12.24833034
2226 1 32.66221424 29.94036305 13.60925593
2227 1 36.74499102 28.57943746 14.97018153
2228 1 32.66221424 27.21851186 10.88740475
2229 1 34.02313983 31.30128864 14.97018153
2230 1 35.38406543 29.94036305 10.88740475
2231 1 34.02313983 28.57943746 12.24833034
2232 1 35.38406543 27.21851186 13.60925593
2233 1 42.18869339 20.4138839 1.36092559
2234 1 38.10591661 19.05295831 2.72185119
2235 1 42.18869339 17.69203271 4.08277678
2236 1 38.10591661 16.33110712 -1.21182158e-15
2237 1 39.46684221 20.4138839 4.08277678
2238 1 40.8277678 19.05295831 -1.51182158e-15
2239 1 39.46684221 17.69203271 1.36092559
2240 1 40.8277678 16.33110712 2.72185119
2241 1 42.18869339 20.4138839 6.80462797
2242 1 38.10591661 19.05295831 8.16555356
2243 1 42.18869339 17.69203271 9.52647915
2244 1 38.10591661 16.33110712 5.44370237
2245 1 39.46684221 20.4138839 9.52647915
2246 1 40.8277678 19.05295831 5.44370237
2247 1 39.46684221 17.69203271 6.80462797
2248 1 40.8277678 16.33110712 8.16555356
2249 1 42.18869339 20.4138839 12.24833034
2250 1 38.10591661 19.05295831 13.60925593
2251 1 42.18869339 17.69203271 14.97018153
2252 1 38.10591661 16.33110712 10.88740475
2253 1 39.46684221 20.4138839 14.97018153
2254 1 40.8277678 19.05295831 10.88740475
2255 1 39.46684221 17.69203271 12.24833034
2256 1 40.8277678 16.33110712 13.60925593
2257 1 42.18869339 25.85758627 1.36092559
2258 1 38.10591661 24.49666068 2.72185119
2259 1 42.18869339 23.13573509 4.08277678
2260 1 38.10591661 21.77480949 -1.51182158e-15
2261 1 39.46684221 25.85758627 4.08277678
2262 1 40.8277678 24.49666068 -1.81182158e-15
2263 1 39.46684221 23.13573509 1.36092559
2264 1 40.8277678 21.77480949 2.72185119
2265 1 42.18869339 25.85758627 6.80462797
2266 1 38.10591661 24.49666068 8.16555356
2267 1 42.18869339 23.13573509 9.52647915
2268 1 38.10591661 21.77480949 5.44370237
2269 1 39.46684221 25.85758627 9.52647915
2270 1 40.8277678 24.49666068 5.44370237
2271 1 39.46684221 23.13573509 6.80462797
2272 1 40.8277678 21.77480949 8.16555356
2273 1 42.18869339 25.85758627 12.24833034
2274 1 38.10591661 24.49666068 13.60925593
2275 1 42.18869339 23.13573509 14.97018153
2276 1 38.10591661 21.77480949 10.88740475
2277 1 39.46684221 25.85758627 14.97018153
2278 1 40.8277678 24.49666068 10.88740475
2279 1 39.46684221 23.13573509 12.24833034
2280 1 40.8277678 21.77480949 13.60925593
2281 1 42.18869339 31.30128864 1.36092559
2282 1 38.10591661 29.94036305 2.72185119
2283 1 42.18869339 28.57943746 4.08277678
2284 1 38.10591661 27.21851186 -1.81182158e-15
2285 1 39.46684221 31.30128864 4.08277678
2286 1 40.8277678 29.94036305 -2.11182158e-15
2287 1 39.46684221 28.57943746 1.36092559
2288 1 40.8277678 27.21851186 2.72185119
2289 1 42.18869339 31.30128864 6.80462797
2290 1 38.10591661 29.94036305 8.16555356
2291 1 42.18869339 28.57943746 9.52647915
2292 1 38.10591661 27.21851186 5.44370237
2293 1 39.46684221 31.30128864 9.52647915
2294 1 40.8277678 29.94036305 5.44370237
2295 1 39.46684221 28.57943746 6.80462797
2296 1 40.8277678 27.21851186 8.16555356
2297 1 42.18869339 31.30128864 12.24833034
2298 1 38.10591661 29.94036305 13.60925593
2299 1 42.18869339 28.57943746 14.97018153
2300 1 38.10591661 27.21851186 10.88740475
2301 1 39.46684221 31.30128864 14.97018153
2302 1 40.8277678 29.94036305 10.88740475
2303 1 39.46684221 28.57943746 12.24833034
2304 1 40.8277678 27.21851186 13.60925593
2305 1 47.63239577 20.4138839 1.36092559
2306 1 43.54961899 19.05295831 2.72185119
2307 1 47.63239577 17.69203271 4.08277678
2308 1 43.54961899 16.33110712 -1.51182158e-15
2309 1 44.91054458 20.4138839 4.08277678
2310 1 46.27147017 19.05295831 -1.81182158e-15
2311 1 44.91054458 17.69203271 1.36092559
2312 1 46.27147017 16.33110712 2.72185119
2313 1 47.63239577 20.4138839 6.80462797
2314 1 43.54961899 19.05295831 8.16555356
2315 1 47.63239577 17.69203271 9.52647915
2316 1 43.54961899 16.33110712 5.44370237
2317 1 44.91054458 20.4138839 9.52647915
2318 1 46.27147017 19.05295831 5.44370237
2319 1 44.91054458 17.69203271 6.80462797
2320 1 46.27147017 16.33110712 8.16555356
2321 1 47.63239577 20.4138839 12.24833034
2322 1 43.54961899 19.05295831 13.60925593
2323 1 47.63239577 17.69203271 14.97018153
2324 1 43.54961899 16.33110712 10.88740475
2325 1 44.91054458 20.4138839 14.97018153
2326 1 46.27147017 19.05295831 10.88740475
2327 1 44.91054458 17.69203271 12.24833034
2328 1 46.27147017 16.33110712 13.60925593
2329 1 47.63239577 25.85758627 1.36092559
2330 1 43.54961899 24.49666068 2.72185119
2331 1 47.63239577 23.13573509 4.08277678
2332 1 43.54961899 21.77480949 -1.81182158e-15
2333 1 44.91054458 25.85758627 4.08277678
2334 1 46.27147017 24.49666068 -2.11182158e-15
2335 1 44.91054458 23.13573509 1.36092559
2336 1 46.27147017 21.77480949 2.72185119
2337 1 47.63239577 25.85758627 6.80462797
2338 1 43.54961899 24.49666068 8.16555356
2339 1 47.63239577 23.13573509 9.52647915
2340 1 43.54961899 21.77480949 5.44370237
2341 1 44.91054458 25.85758627 9.52647915
2342 1 46.27147017 24.49666068 5.44370237
2343 1 44.91054458 23.13573509 6.80462797
2344 1 46.27147017 21.77480949 8.16555356
2345 1 47.63239577 25.85758627 12.24833034
2346 1 43.54961899 24.49666068 13.60925593
2347 1 47.63239577 23.13573509 14.97018153
2348 1 43.54961899 21.77480949 10.88740475
2349 1 44.91054458 25.85758627 14.97018153
2350 1 46.27147017 24.49666068 10.88740475
2351 1 44.91054458 23.13573509 12.24833034
2352 1 46.27147017 21.77480949 13.60925593
2353 1 47.63239577 31.30128864 1.36092559
2354 1 43.54961899 29.94036305 2.72185119
2355 1 47.63239577 28.57943746 4.08277678
2356 1 43.54961899 27.21851186 -1.22364316e-15
2357 1 44.91054458 31.30128864 4.08277678
2358 1 46.27147017 29.94036305 -1.52364316e-15
2359 1 44.91054458 28.57943746 1.36092559
2360 1 46.27147017 27.21851186 2.72185119
2361 1 47.63239577 31.30128864 6.80462797
2362 1 43.54961899 29.94036305 8.16555356
2363 1 47.63239577 28.57943746 9.52647915
2364 1 43.54961899 27.21851186 5.44370237
2365 1 44.91054458 31.30128864 9.52647915
2366 1 46.27147017 29.94036305 5.44370237
2367 1 44.91054458 28.57943746 6.80462797
2368 1 46.27147017 27.21851186 8.16555356
2369 1 47.63239577 31.30128864 12.24833034
2370 1 43.54961899 29.94036305 13.60925593
2371 1 47.63239577 28.57943746 14.97018153
2372 1 43.54961899 27.21851186 10.88740475
2373 1 44.91054458 31.30128864 14.97018153
2374 1 46.27147017 29.94036305 10.88740475
2375 1 44.91054458 28.57943746 12.24833034
2376 1 46.27147017 27.21851186 13.60925593
2377 1 36.74499102 20.4138839 17.69203271
2378 1 32.66221424 19.05295831 19.05295831
2379 1 36.74499102 17.69203271 20.4138839
2380 1 32.66221424 16.33110712 16.33110712
2381 1 34.02313983 20.4138839 20.4138839
2382 1 35.38406543 19.05295831 16.33110712
2383 1 34.02313983 17.69203271 17.69203271
2384 1 35.38406543 16.33110712 19.05295831
2385 1 36.74499102 20.4138839 23.13573508
2386 1 32.66221424 19.05295831 24.49666068
2387 1 36.74499102 17.69203271 25.85758627
2388 1 32.66221424 16.33110712 21.77480949
2389 1 34.02313983 20.4138839 25.85758627
2390 1 35.38406543 19.05295831 21.77480949
2391 1 34.02313983 17.69203271 23.13573508
2392 1 35.38406543 16.33110712 24.49666068
2393 1 36.74499102 20.4138839 28.57943746
2394 1 32.66221424 19.05295831 29.94036305
2395 1 36.74499102 17.69203271 31.30128864
2396 1 32.66221424 16.33110712 27.21851186
2397 1 34.02313983 20.4138839 31.30128864
2398 1 35.38406543 19.05295831 27.21851186
2399 1 34.02313983 17.69203271 28.57943746
2400 1 35.38406543 16.33110712 29.94036305
2401 1 36.74499102 25.85758627 17.69203271
2402 1 32.66221424 24.49666068 19.05295831
2403 1 36.74499102 23.13573509 20.4138839
2404 1 32.66221424 21.77480949 16.33110712
2405 1 34.02313983 25.85758627 20.4138839
2406 1 35.38406543 24.49666068 16.33110712
2407 1 34.02313983 23.13573509 17.69203271
2408 1 35.38406543 21.77480949 19.05295831
2409 1 36.74499102 25.85758627 23.13573508
2410 1 32.66221424 24.49666068 24.49666068
2411 1 36.74499102 23.13573509 25.85758627
2412 1 32.66221424 21.77480949 21.77480949
2413 1 34.02313983 25.85758627 25.85758627
2414 1 35.38406543 24.49666068 21.77480949
2415 1 34.02313983 23.13573509 23.13573508
2416 1 35.38406543 21.77480949 24.49666068
2417 1 36.74499102 25.85758627 28.57943746
2418 1 32.66221424 24.49666068 29.94036305
2419 1 36.74499102 23.13573509 31.30128864
2420 1 32.66221424 21.77480949 27.21851186
2421 1 34.02313983 25.85758627 31.30128864
2422 1 35.38406543 24.49666068 27.21851186
2423 1 34.02313983 23.13573509 28.57943746
2424 1 35.38406543 21.77480949 29.94036305
2425 1 36.74499102 31.30128864 17.69203271
2426 1 32.66221424 29.94036305 19.05295831
2427 1 36.74499102 28.57943746 20.4138839
2428 1 32.66221424 27.21851186 16.33110712
2429 1 34.02313983 31.30128864 20.4138839
2430 1 35.38406543 29.94036305 16.33110712
2431 1 34.02313983 28.57943746 17.69203271
2432 1 35.38406543 27.21851186 19.05295831
2433 1 36.74499102 31.30128864 23.13573508
2434 1 32.66221424 29.94036305 24.49666068
2435 1 36.74499102 28.57943746 25.85758627
2436 1 32.66221424 27.21851186 21.77480949
2437 1 34.02313983 31.30128864 25.85758627
2438 1 35.38406543 29.94036305 21.77480949
2439 1 34.02313983 28.57943746 23.13573508
2440 1 35.38406543 27.21851186 24.49666068
2441 1 36.74499102 31.30128864 28.57943746
2442 1 32.66221424 29.94036305 29.94036305
2443 1 36.74499102 28.57943746 31.30128864
2444 1 32.66221424 27.21851186 27.21851186
2445 1 34.02313983 31.30128864 31.30128864
2446 1 35.38406543 29.94036305 27.21851186
2447 1 34.02313983 28.57943746 28.57943746
2448 1 35.38406543 27.21851186 29.94036305
2449 1 42.18869339 20.4138839 17.69203271
2450 1 38.10591661 19.05295831 19.05295831
2451 1 42.18869339 17.69203271 20.4138839
2452 1 38.10591661 16.33110712 16.33110712
2453 1 39.46684221 20.4138839 20.4138839
2454 1 40.8277678 19.05295831 16.33110712
2455 1 39.46684221 17.69203271 17.69203271
2456 1 40.8277678 16.33110712 19.05295831
2457 1 42.18869339 20.4138839 23.13573508
2458 1 38.10591661 19.05295831 24.49666068
2459 1 42.18869339 17.69203271 25.85758627
2460 1 38.10591661 16.33110712 21.77480949
2461 1 39.46684221 20.4138839 25.85758627
2462 1 40.8277678 19.05295831 21.77480949
2463 1 39.46684221 17.69203271 23.13573508
2464 1 40.8277678 16.33110712 24.49666068
2465 1 42.18869339 20.4138839 28.57943746
2466 1 38.10591661 19.05295831 29.94036305
2467 1 42.18869339 17.69203271 31.30128864
2468 1 38.10591661 16.33110712 27.21851186
2469 1 39.46684221 20.4138839 31.30128864
2470 1 40.8277678 19.05295831 27.21851186
2471 1 39.46684221 17.69203271 28.57943746
2472 1 40.8277678 16.33110712 29.94036305
2473 1 42.18869339 25.85758627 17.69203271
2474 1 38.10591661 24.49666068 19.05295831
2475 1 42.18869339 23.13573509 20.4138839
2476 1 38.10591661 21.77480949 16.33110712
2477 1 39.46684221 25.85758627 20.4138839
2478 1 40.8277678 24.49666068 16.33110712
2479 1 39.46684221 23.13573509 17.69203271
2480 1 40.8277678 21.77480949 19.05295831
2481 1 42.18869339 25.85758627 23.13573508
2482 1 38.10591661 24.49666068 24.49666068
2483 1 42.18869339 23.13573509 25.85758627
2484 1 38.10591661 21.77480949 21.77480949
2485 1 39.46684221 25.85758627 25.85758627
2486 1 40.8277678 24.49666068 21.77480949
2487 1 39.46684221 23.13573509 23.13573508
2488 1 40.8277678 21.77480949 24.49666068
2489 1 42.18869339 25.85758627 28.57943746
2490 1 38.10591661 24.49666068 29.94036305
2491 1 42.18869339 23.13573509 31.30128864
2492 1 38.10591661 21.77480949 27.21851186
2493 1 39.46684221 25.85758627 31.30128864
2494 1 40.8277678 24.49666068 27.21851186
2495 1 39.46684221 23.13573509 28.57943746
2496 1 40.8277678 21.77480949 29.94036305
2497 1 42.18869339 31.30128864 17.69203271
2498 1 38.10591661 29.94036305 19.05295831
2499 1 42.18869339 28.57943746 20.4138839
2500 1 38.10591661 27.21851186 16.33110712
2501 1 39.46684221 31.30128864 20.4138839
2502 1 40.8277678 29.94036305 16.33110712
2503 1 39.46684221 28.57943746 17.69203271
2504 1 40.8277678 27.21851186 19.05295831
2505 1 42.18869339 31.30128864 23.13573508
2506 1 38.10591661 29.94036305 24.49666068
2507 1 42.18869339 28.57943746 25.85758627
2508 1 38.10591661 27.21851186 21.77480949
2509 1 39.46684221 31.30128864 25.85758627
2510 1 40.8277678 29.94036305 21.77480949
2511 1 39.46684221 28.57943746 23.13573508
2512 1 40.8277678 27.21851186 24.49666068
2513 1 42.18869339 31.30128864 28.57943746
2514 1 38.10591661 29.94036305 29.94036305
2515 1 42.18869339 28.57943746 31.30128864
2516 1 38.10591661 27.21851186 27.21851186
2517 1 39.46684221 31.30128864 31.30128864
2518 1 40.8277678 29.94036305 27.21851186
2519 1 39.46684221 28.57943746 28.57943746
2520 1 40.8277678 27.21851186 29.94036305
2521 1 47.63239577 20.4138839 17.69203271
2522 1 43.54961899 19.05295831 19.05295831
2523 1 47.63239577 17.69203271 20.4138839
2524 1 43.54961899 16.33110712 16.33110712
2525 1 44.91054458 20.4138839 20.4138839
2526 1 46.27147017 19.05295831 16.33110712
2527 1 44.91054458 17.69203271 17.69203271
2528 1 46.27147017 16.33110712 19.05295831
2529 1 47.63239577 20.4138839 23.13573508
2530 1 43.54961899 19.05295831 24.49666068
2531 1 47.63239577 17.69203271 25.85758627
2532 1 43.54961899 16.33110712 21.77480949
2533 1 44.91054458 20.4138839 25.85758627
2534 1 46.27147017 19.05295831 21.77480949
2535 1 44.91054458 17.69203271 23.13573508
2536 1 46.27147017 16.33110712 24.49666068
2537 1 47.63239577 20.4138839 28.57943746
2538 1 43.54961899 19.05295831 29.94036305
2539 1 47.63239577 17.69203271 31.30128864
2540 1 43.54961899 16.33110712 27.21851186
2541 1 44.91054458 20.4138839 31.30128864
2542 1 46.27147017 19.05295831 27.21851186
2543 1 44.91054458 17.69203271 28.57943746
2544 1 46.27147017 16.33110712 29.94036305
2545 1 47.63239577 25.85758627 17.69203271
2546 1 43.54961899 24.49666068 19.05295831
2547 1 47.63239577 23.13573509 20.4138839
2548 1 43.54961899 21.77480949 16.33110712
2549 1 44.91054458 25.85758627 20.4138839
2550 1 46.27147017 24.49666068 16.33110712
2551 1 44.91054458 23.13573509 17.69203271
2552 1 46.27147017 21.77480949 19.05295831
2553 1 47.63239577 25.85758627 23.13573508
2554 1 43.54961899 24.49666068 24.49666068
2555 1 47.63239577 23.13573509 25.85758627
2556 1 43.54961899 21.77480949 21.77480949
2557 1 44.91054458 25.85758627 25.85758627
2558 1 46.27147017 24.49666068 21.77480949
2559 1 44.91054458 23.13573509 23.13573508
2560 1 46.27147017 21.77480949 24.49666068
2561 1 47.63239577 25.85758627 28.57943746
2562 1 43.54961899 24.49666068 29.94036305
2563 1 47.63239577 23.13573509 31.30128864
2564 1 43.54961899 21.77480949 27.21851186
2565 1 44.91054458 25.85758627 31.30128864
2566 1 46.27147017 24.49666068 27.21851186
2567 1 44.91054458 23.13573509 28.57943746
2568 1 46.27147017 21.77480949 29.94036305
2569 1 47.63239577 31.30128864 17.69203271
2570 1 43.54961899 29.94036305 19.05295831
2571 1 47.63239577 28.57943746 20.4138839
2572 1 43.54961899 27.21851186 16.33110712
2573 1 44.91054458 31.30128864 20.4138839
2574 1 46.27147017 29.94036305 16.33110712
2575 1 44.91054458 28.57943746 17.69203271
2576 1 46.27147017 27.21851186 19.05295831
2577 1 47.63239577 31.30128864 23.13573508
2578 1 43.54961899 29.94036305 24.49666068
2579 1 47.63239577 28.57943746 25.85758627
2580 1 43.54961899 27.21851186 21.77480949
2581 1 44.91054458 31.30128864 25.85758627
2582 1 46.27147017 29.94036305 21.77480949
2583 1 44.91054458 28.57943746 23.13573508
2584 1 46.27147017 27.21851186 24.49666068
2585 1 47.63239577 31.30128864 28.57943746
2586 1 43.54961899 29.94036305 29.94036305
2587 1 47.63239577 28.57943746 31.30128864
2588 1 43.54961899 27.21851186 27.21851186
2589 1 44.91054458 31.30128864 31.30128864
2590 1 46.27147017 29.94036305 27.21851186
2591 1 44.91054458 28.57943746 28.57943746
2592 1 46.27147017 27.21851186 29.94036305
2593 1 53.07609814 4.08277678 1.36092559
2594 1 48.99332136 2.72185119 2.72185119
2595 1 53.07609814 1.36092559 4.08277678
2596 1 48.99332136 -2.18952885e-47 -1.8e-15
2597 1 50.35424695 4.08277678 4.08277678
2598 1 51.71517255 2.72185119 -2.1e-15
2599 1 50.35424695 1.36092559 1.36092559
2600 1 51.71517255 1.5e-16 2.72185119
2601 1 53.07609814 4.08277678 6.80462797
2602 1 48.99332136 2.72185119 8.16555356
2603 1 53.07609814 1.36092559 9.52647915
2604 1 48.99332136 3.0e-16 5.44370237
2605 1 50.35424695 4.08277678 9.52647915
2606 1 51.71517255 2.72185119 5.44370237
2607 1 50.35424695 1.36092559 6.80462797
2608 1 51.71517255 4.5e-16 8.16555356
2609 1 53.07609814 4.08277678 12.24833034
2610 1 48.99332136 2.72185119 13.60925593
2611 1 53.07609814 1.36092559 14.97018153
2612 1 48.99332136 6.0e-16 10.88740475
2613 1 50.35424695 4.08277678 14.97018153
2614 1 51.71517255 2.72185119 10.88740475
2615 1 50.35424695 1.36092559 12.24833034
2616 1 51.71517255 7.5e-16 13.60925593
2617 1 53.07609814 9.52647915 1.36092559
2618 1 48.99332136 8.16555356 2.72185119
2619 1 53.07609814 6.80462797 4.08277678
2620 1 48.99332136 5.44370237 -1.21182158e-15
2621 1 50.35424695 9.52647915 4.08277678
2622 1 51.71517255 8.16555356 -1.51182158e-15
2623 1 50.35424695 6.80462797 1.36092559
2624 1 51.71517255 5.44370237 2.72185119
2625 1 53.07609814 9.52647915 6.80462797
2626 1 48.99332136 8.16555356 8.16555356
2627 1 53.07609814 6.80462797 9.52647915
2628 1 48.99332136 5.44370237 5.44370237
2629 1 50.35424695 9.52647915 9.52647915
2630 1 51.71517255 8.16555356 5.44370237
2631 1 50.35424695 6.80462797 6.80462797
2632 1 51.71517255 5.44370237 8.16555356
2633 1 53.07609814 9.52647915 12.24833034
2634 1 48.99332136 8.16555356 13.60925593
2635 1 53.07609814 6.80462797 14.97018153
2636 1 48.99332136 5.44370237 10.88740475
2637 1 50.35424695 9.52647915 14.97018153
2638 1 51.71517255 8.16555356 10.88740475
2639 1 50.35424695 6.80462797 12.24833034
2640 1 51.71517255 5.44370237 13.60925593
2641 1 53.07609814 14.97018153 1.36092559
2642 1 48.99332136 13.60925593 2.72185119
2643 1 53.07609814 12.24833034 4.08277678
2644 1 48.99332136 10.88740475 -1.51182158e-15
2645 1 50.35424695 14.97018153 4.08277678
2646 1 51.71517255 13.60925593 -1.81182158e-15
2647 1 50.35424695 12.24833034 1.36092559
2648 1 51.71517255 10.88740475 2.72185119
2649 1 53.07609814 14.97018153 6.80462797
2650 1 48.99332136 13.60925593 8.16555356
2651 1 53.07609814 12.24833034 9.52647915
2652 1 48.99332136 10.88740475 5.44370237
2653 1 50.35424695 14.97018153 9.52647915
2654 1 51.71517255 13.60925593 5.44370237
2655 1 50.35424695 12.24833034 6.80462797
2656 1 51.71517255 10.88740475 8.16555356
2657 1 53.07609814 14.97018153 12.24833034
2658 1 48.99332136 13.60925593 13.60925593
2659 1 53.07609814 12.24833034 14.97018153
2660 1 48.99332136 10.88740475 10.88740475
2661 1 50.35424695 14.97018153 14.97018153
2662 1 51.71517255 13.60925593 10.88740475
2663 1 50.35424695 12.24833034 12.24833034
2664 1 51.71517255 10.88740475 13.60925593
2665 1 58.51980051 4.08277678 1.36092559
2666 1 54.43702373 2.72185119 2.72185119
2667 1 58.51980051 1.36092559 4.08277678
2668 1 54.43702373 3.24142493e-32 -1.21182158e-15
2669 1 55.79794932 4.08277678 4.08277678
2670 1 57.15887492 2.72185119 -1.51182158e-15
2671 1 55.79794932 1.36092559 1.36092559
2672 1 57.15887492 1.5e-16 2.72185119
2673 1 58.51980051 4.08277678 6.80462797
2674 1 54.43702373 2.72185119 8.16555356
2675 1 58.51980051 1.36092559 9.52647915
2676 1 54.43702373 3.0e-16 5.44370237
2677 1 55.79794932 4.08277678 9.52647915
2678 1 57.15887492 2.72185119 5.44370237
2679 1 55.79794932 1.36092559 6.80462797
2680 1 57.15887492 4.5e-16 8.16555356
2681 1 58.51980051 4.08277678 12.24833034
2682 1 54.43702373 2.72185119 13.60925593
2683 1 58.51980051 1.36092559 14.97018153
2684 1 54.43702373 6.0e-16 10.88740475
2685 1 55.79794932 4.08277678 14.97018153
2686 1 57.15887492 2.72185119 10.88740475
2687 1 55.79794932 1.36092559 12.24833034
2688 1 57.15887492 7.5e-16 13.60925593
2689 1 58.51980051 9.52647915 1.36092559
2690 1 54.43702373 8.16555356 2.72185119
2691 1 58.51980051 6.80462797 4.08277678
2692 1 54.43702373 5.44370237 -1.51182158e-15
2693 1 55.79794932 9.52647915 4.08277678
2694 1 57.15887492 8.16555356 -1.81182158e-15
2695 1 55.79794932 6.80462797 1.36092559
2696 1 57.15887492 5.44370237 2.72185119
2697 1 58.51980051 9.52647915 6.80462797
2698 1 54.43702373 8.16555356 8.16555356
2699 1 58.51980051 6.80462797 9.52647915
2700 1 54.43702373 5.44370237 5.44370237
2701 1 55.79794932 9.52647915 9.52647915
2702 1 57.15887492 8.16555356 5.44370237
2703 1 55.79794932 6.80462797 6.80462797
2704 1 57.15887492 5.44370237 8.16555356
2705 1 58.51980051 9.52647915 12.24833034
2706 1 54.43702373 8.16555356 13.60925593
2707 1 58.51980051 6.80462797 14.97018153
2708 1 54.43702373 5.44370237 10.88740475
2709 1 55.79794932 9.52647915 14.97018153
2710 1 57.15887492 8.16555356 10.88740475
2711 1 55.79794932 6.80462797 12.24833034
2712 1 57.15887492 5.44370237 13.60925593
2713 1 58.51980051 14.97018153 1.36092559
2714 1 54.43702373 13.60925593 2.72185119
2715 1 58.51980051 12.24833034 4.08277678
2716 1 54.43702373 10.88740475 -1.81182158e-15
2717 1 55.79794932 14.97018153 4.08277678
2718 1 57.15887492 13.60925593 -2.11182158e-15
2719 1 55.79794932 12.24833034 1.36092559
2720 1 57.15887492 10.88740475 2.72185119
2721 1 58.51980051 14.97018153 6.80462797
2722 1 54.43702373 13.60925593 8.16555356
2723 1 58.51980051 12.24833034 9.52647915
2724 1 54.43702373 10.88740475 5.44370237
2725 1 55.79794932 14.97018153 9.52647915
2726 1 57.15887492 13.60925593 5.44370237
2727 1 55.79794932 12.24833034 6.80462797
2728 1 57.15887492 10.88740475 8.16555356
2729 1 58.51980051 14.97018153 12.24833034
2730 1 54.43702373 13.60925593 13.60925593
2731 1 58.51980051 12.24833034 14.97018153
2732 1 54.43702373 10.88740475 10.88740475
2733 1 55.79794932 14.97018153 14.97018153
2734 1 57.15887492 13.60925593 10.88740475
2735 1 55.79794932 12.24833034 12.24833034
2736 1 57.15887492 10.88740475 13.60925593
2737 1 63.96350288 4.08277678 1.36092559
2738 1 59.8807261 2.72185119 2.72185119
2739 1 63.96350288 1.36092559 4.08277678
2740 1 59.8807261 1.58813837e-32 -1.51182158e-15
2741 1 61.2416517 4.08277678 4.08277678
2742 1 62.60257729 2.72185119 -1.81182158e-15
2743 1 61.2416517 1.36092559 1.36092559
2744 1 62.60257729 1.5e-16 2.72185119
2745 1 63.96350288 4.08277678 6.80462797
2746 1 59.8807261 2.72185119 8.16555356
2747 1 63.96350288 1.36092559 9.52647915
2748 1 59.8807261 3.0e-16 5.44370237
2749 1 61.2416517 4.08277678 9.52647915
2750 1 62.60257729 2.72185119 5.44370237
2751 1 61.2416517 1.36092559 6.80462797
2752 1 62.60257729 4.5e-16 8.16555356
2753 1 63.96350288 4.08277678 12.24833034
2754 1 59.8807261 2.72185119 13.60925593
2755 1 63.96350288 1.36092559 14.97018153
2756 1 59.8807261 6.0e-16 10.88740475
2757 1 61.2416517 4.08277678 14.97018153
2758 1 62.60257729 2.72185119 10.88740475
2759 1 61.2416517 1.36092559 12.24833034
2760 1 62.60257729 7.5e-16 13.60925593
2761 1 63.96350288 9.52647915 1.36092559
2762 1 59.8807261 8.16555356 2.72185119
2763 1 63.96350288 6.80462797 4.08277678
2764 1 59.8807261 5.44370237 -1.81182158e-15
2765 1 61.2416517 9.52647915 4.08277678
2766 1 62.60257729 8.16555356 -2.11182158e-15
2767 1 61.2416517 6.80462797 1.36092559
2768 1 62.60257729 5.44370237 2.72185119
2769 1 63.96350288 9.52647915 6.80462797
2770 1 59.8807261 8.16555356 8.16555356
2771 1 63.96350288 6.80462797 9.52647915
2772 1 59.8807261 5.44370237 5.44370237
2773 1 61.2416517 9.52647915 9.52647915
2774 1 62.60257729 8.16555356 5.44370237
2775 1 61.2416517 6.80462797 6.80462797
2776 1 62.60257729 5.44370237 8.16555356
2777 1 63.96350288 9.52647915 12.24833034
2778 1 59.8807261 8.16555356 13.60925593
2779 1 63.96350288 6.80462797 14.97018153
2780 1 59.8807261 5.44370237 10.88740475
2781 1 61.2416517 9.52647915 14.97018153
2782 1 62.60257729 8.16555356 10.88740475
2783 1 61.2416517 6.80462797 12.24833034
2784 1 62.60257729 5.44370237 13.60925593
2785 1 63.96350288 14.97018153 1.36092559
2786 1 59.8807261 13.60925593 2.72185119
2787 1 63.96350288 12.24833034 4.08277678
2788 1 59.8807261 10.88740475 -1.22364316e-15
2789 1 61.2416517 14.97018153 4.08277678
2790 1 62.60257729 13.60925593 -1.52364316e-15
2791 1 61.2416517 12.24833034 1.36092559
2792 1 62.60257729 10.88740475 2.72185119
2793 1 63.96350288 14.97018153 6.80462797
2794 1 59.8807261 13.60925593 8.16555356
2795 1 63.96350288 12.24833034 9.52647915
2796 1 59.8807261 10.88740475 5.44370237
2797 1 61.2416517 14.97018153 9.52647915
2798 1 62.60257729 13.60925593 5.44370237
2799 1 61.2416517 12.24833034 6.80462797
2800 1 62.60257729 10.88740475 8.16555356
2801 1 63.96350288 14.97018153 12.24833034
2802 1 59.8807261 13.60925593 13.60925593
2803 1 63.96350288 12.24833034 14.97018153
2804 1 59.8807261 10.88740475 10.88740475
2805 1 61.2416517 14.97018153 14.97018153
2806 1 62.60257729 13.60925593 10.88740475
2807 1 61.2416517 12.24833034 12.24833034
2808 1 62.60257729 10.88740475 13.60925593
2809 1 53.07609814 4.08277678 17.69203271
2810 1 48.99332136 2.72185119 19.05295831
2811 1 53.07609814 1.36092559 20.4138839
2812 1 48.99332136 9.0e-16 16.33110712
2813 1 50.35424695 4.08277678 20.4138839
2814 1 51.71517255 2.72185119 16.33110712
2815 1 50.35424695 1.36092559 17.69203271
2816 1 51.71517255 1.05e-15 19.05295831
2817 1 53.07609814 4.08277678 23.13573508
2818 1 48.99332136 2.72185119 24.49666068
2819 1 53.07609814 1.36092559 25.85758627
2820 1 48.99332136 1.2e-15 21.77480949
2821 1 50.35424695 4.08277678 25.85758627
2822 1 51.71517255 2.72185119 21.77480949
2823 1 50.35424695 1.36092559 23.13573508
2824 1 51.71517255 1.35e-15 24.49666068
2825 1 53.07609814 4.08277678 28.57943746
2826 1 48.99332136 2.72185119 29.94036305
2827 1 53.07609814 1.36092559 31.30128864
2828 1 48.99332136 1.5e-15 27.21851186
2829 1 50.35424695 4.08277678 31.30128864
2830 1 51.71517255 2.72185119 27.21851186
2831 1 50.35424695 1.36092559 28.57943746
2832 1 51.71517255 1.65e-15 29.94036305
2833 1 53.07609814 9.52647915 17.69203271
2834 1 48.99332136 8.16555356 19.05295831
2835 1 53.07609814 6.80462797 20.4138839
2836 1 48.99332136 5.44370237 16.33110712
2837 1 50.35424695 9.52647915 20.4138839
2838 1 51.71517255 8.16555356 16.33110712
2839 1 50.35424695 6.80462797 17.69203271
2840 1 51.71517255 5.44370237 19.05295831
2841 1 53.07609814 9.52647915 23.13573508
2842 1 48.99332136 8.16555356 24.49666068
2843 1 53.07609814 6.80462797 25.85758627
2844 1 48.99332136 5.44370237 21.77480949
2845 1 50.35424695 9.52647915 25.85758627
2846 1 51.71517255 8.16555356 21.77480949
2847 1 50.35424695 6.80462797 23.13573508
2848 1 51.71517255 5.44370237 24.49666068
2849 1 53.07609814 9.52647915 28.57943746
2850 1 48.99332136 8.16555356 29.94036305
2851 1 53.07609814 6.80462797 31.30128864
2852 1 48.99332136 5.44370237 27.21851186
2853 1 50.35424695 9.52647915 31.30128864
2854 1 51.71517255 8.16555356 27.21851186
2855 1 50.35424695 6.80462797 28.57943746
2856 1 51.71517255 5.44370237 29.94036305
2857 1 53.07609814 14.97018153 17.69203271
2858 1 48.99332136 13.60925593 19.05295831
2859 1 53.07609814 12.24833034 20.4138839
2860 1 48.99332136 10.88740475 16.33110712
2861 1 50.35424695 14.97018153 20.4138839
2862 1 51.71517255 13.60925593 16.33110712
2863 1 50.35424695 12.24833034 17.69203271
2864 1 51.71517255 10.88740475 19.05295831
2865 1 53.07609814 14.97018153 23.13573508
2866 1 48.99332136 13.60925593 24.49666068
2867 1 53.07609814 12.24833034 25.85758627
2868 1 48.99332136 10.88740475 21.77480949
2869 1 50.35424695 14.97018153 25.85758627
2870 1 51.71517255 13.60925593 21.77480949
2871 1 50.35424695 12.24833034 23.13573508
2872 1 51.71517255 10.88740475 24.49666068
2873 1 53.07609814 14.97018153 28.57943746
2874 1 48.99332136 13.60925593 29.94036305
2875 1 53.07609814 12.24833034 31.30128864
2876 1 48.99332136 10.88740475 27.21851186
2877 1 50.35424695 14.97018153 31.30128864
2878 1 51.71517255 13.60925593 27.21851186
2879 1 50.35424695 12.24833034 28.57943746
2880 1 51.71517255 10.88740475 29.94036305
2881 1 58.51980051 4.08277678 17.69203271
2882 1 54.43702373 2.72185119 19.05295831
2883 1 58.51980051 1.36092559 20.4138839
2884 1 54.43702373 9.0e-16 16.33110712
2885 1 55.79794932 4.08277678 20.4138839
2886 1 57.15887492 2.72185119 16.33110712
2887 1 55.79794932 1.36092559 17.69203271
2888 1 57.15887492 1.05e-15 19.05295831
2889 1 58.51980051 4.08277678 23.13573508
2890 1 54.43702373 2.72185119 24.49666068
2891 1 58.51980051 1.36092559 25.85758627
2892 1 54.43702373 1.2e-15 21.77480949
2893 1 55.79794932 4.08277678 25.85758627
2894 1 57.15887492 2.72185119 21.77480949
2895 1 55.79794932 1.36092559 23.13573508
2896 1 57.15887492 1.35e-15 24.49666068
2897 1 58.51980051 4.08277678 28.57943746
2898 1 54.43702373 2.72185119 29.94036305
2899 1 58.51980051 1.36092559 31.30128864
2900 1 54.43702373 1.5e-15 27.21851186
2901 1 55.79794932 4.08277678 31.30128864
2902 1 57.15887492 2.72185119 27.21851186
2903 1 55.79794932 1.36092559 28.57943746
2904 1 57.15887492 1.65e-15 29.94036305
2905 1 58.51980051 9.52647915 17.69203271
2906 1 54.43702373 8.16555356 19.05295831
2907 1 58.51980051 6.80462797 20.4138839
2908 1 54.43702373 5.44370237 16.33110712
2909 1 55.79794932 9.52647915 20.4138839
2910 1 57.15887492 8.16555356 16.33110712
2911 1 55.79794932 6.80462797 17.69203271
2912 1 57.15887492 5.44370237 19.05295831
2913 1 58.51980051 9.52647915 23.13573508
2914 1 54.43702373 8.16555356 24.49666068
2915 1 58.51980051 6.80462797 25.85758627
2916 1 54.43702373 5.44370237 21.77480949
2917 1 55.79794932 9.52647915 25.85758627
2918 1 57.15887492 8.16555356 21.77480949
2919 1 55.79794932 6.80462797 23.13573508
2920 1 57.15887492 5.44370237 24.49666068
2921 1 58.51980051 9.52647915 28.57943746
2922 1 54.43702373 8.16555356 29.94036305
2923 1 58.51980051 6.80462797 31.30128864
2924 1 54.43702373 5.44370237 27.21851186
2925 1 55.79794932 9.52647915 31.30128864
2926 1 57.15887492 8.16555356 27.21851186
2927 1 55.79794932 6.80462797 28.57943746
2928 1 57.15887492 5.44370237 29.94036305
2929 1 58.51980051 14.97018153 17.69203271
2930 1 54.43702373 13.60925593 19.05295831
2931 1 58.51980051 12.24833034 20.4138839
2932 1 54.43702373 10.88740475 16.33110712
2933 1 55.79794932 14.97018153 20.4138839
2934 1 57.15887492 13.60925593 16.33110712
2935 1 55.79794932 12.24833034 17.69203271
2936 1 57.15887492 10.88740475 19.05295831
2937 1 58.51980051 14.97018153 23.13573508
2938 1 54.43702373 13.60925593 24.49666068
2939 1 58.51980051 12.24833034 25.85758627
2940 1 54.43702373 10.88740475 21.77480949
2941 1 55.79794932 14.97018153 25.85758627
2942 1 57.15887492 13.60925593 21.77480949
2943 1 55.79794932 12.24833034 23.13573508
2944 1 57.15887492 10.88740475 24.49666068
2945 1 58.51980051 14.97018153 28.57943746
2946 1 54.43702373 13.60925593 29.94036305
2947 1 58.51980051 12.24833034 31.30128864
2948 1 54.43702373 10.88740475 27.21851186
2949 1 55.79794932 14.97018153 31.30128864
2950 1 57.15887492 13.60925593 27.21851186
2951 1 55.79794932 12.24833034 28.57943746
2952 1 57.15887492 10.88740475 29.94036305
2953 1 63.96350288 4.08277678 17.69203271
2954 1 59.8807261 2.72185119 19.05295831
2955 1 63.96350288 1.36092559 20.4138839
2956 1 59.8807261 9.0e-16 16.33110712
2957 1 61.2416517 4.08277678 20.4138839
2958 1 62.60257729 2.72185119 16.33110712
2959 1 61.2416517 1.36092559 17.69203271
2960 1 62.60257729 1.05e-15 19.05295831
2961 1 63.96350288 4.08277678 23.13573508
2962 1 59.8807261 2.72185119 24.49666068
2963 1 63.96350288 1.36092559 25.85758627
2964 1 59.8807261 1.2e-15 21.77480949
2965 1 61.2416517 4.08277678 25.85758627
2966 1 62.60257729 2.72185119 21.77480949
2967 1 61.2416517 1.36092559 23.13573508
2968 1 62.60257729 1.35e-15 24.49666068
2969 1 63.96350288 4.08277678 28.57943746
2970 1 59.8807261 2.72185119 29.94036305
2971 1 63.96350288 1.36092559 31.30128864
2972 1 59.8807261 1.5e-15 27.21851186
2973 1 61.2416517 4.08277678 31.30128864
2974 1 62.60257729 2.72185119 27.21851186
2975 1 61.2416517 1.36092559 28.57943746
2976 1 62.60257729 1.65e-15 29.94036305
2977 1 63.96350288 9.52647915 17.69203271
2978 1 59.8807261 8.16555356 19.05295831
2979 1 63.96350288 6.80462797 20.4138839
2980 1 59.8807261 5.44370237 16.33110712
2981 1 61.2416517 9.52647915 20.4138839
2982 1 62.60257729 8.16555356 16.33110712
2983 1 61.2416517 6.80462797 17.69203271
2984 1 62.60257729 5.44370237 19.05295831
2985 1 63.96350288 9.52647915 23.13573508
2986 1 59.8807261 8.16555356 24.49666068
2987 1 63.96350288 6.80462797 25.85758627
2988 1 59.8807261 5.44370237 21.77480949
2989 1 61.2416517 9.52647915 25.85758627
2990 1 62.60257729 8.16555356 21.77480949
2991 1 61.2416517 6.80462797 23.13573508
2992 1 62.60257729 5.44370237 24.49666068
2993 1 63.96350288 9.52647915 28.57943746
2994 1 59.8807261 8.16555356 29.94036305
2995 1 63.96350288 6.80462797 31.30128864
2996 1 59.8807261 5.44370237 27.21851186
2997 1 61.2416517 9.52647915 31.30128864
2998 1 62.60257729 8.16555356 27.21851186
2999 1 61.2416517 6.80462797 28.57943746
3000 1 62.60257729 5.44370237 29.94036305
3001 1 63.96350288 14.97018153 17.69203271
3002 1 59.8807261 13.60925593 19.05295831
3003 1 63.96350288 12.24833034 20.4138839
3004 1 59.8807261 10.88740475 16.33110712
3005 1 61.2416517 14.97018153 20.4138839
3006 1 62.60257729 13.60925593 16.33110712
3007 1 61.2416517 12.24833034 17.69203271
3008 1 62.60257729 10.88740475 19.05295831
3009 1 63.96350288 14.97018153 23.13573508
3010 1 59.8807261 13.60925593 24.49666068
3011 1 63.96350288 12.24833034 25.85758627
3012 1 59.8807261 10.88740475 21.77480949
3013 1 61.2416517 14.97018153 25.85758627
3014 1 62.60257729 13.60925593 21.77480949
3015 1 61.2416517 12.24833034 23.13573508
3016 1 62.60257729 10.88740475 24.49666068
3017 1 63.96350288 14.97018153 28.57943746
3018 1 59.8807261 13.60925593 29.94036305
3019 1 63.96350288 12.24833034 31.30128864
3020 1 59.8807261 10.88740475 27.21851186
3021 1 61.2416517 14.97018153 31.30128864
3022 1 62.60257729 13.60925593 27.21851186
3023 1 61.2416517 12.24833034 28.57943746
3024 1 62.60257729 10.88740475 29.94036305
3025 1 53.07609814 20.4138839 1.36092559
3026 1 48.99332136 19.05295831 2.72185119
3027 1 53.07609814 17.69203271 4.08277678
3028 1 48.99332136 16.33110712 -1.8e-15
3029 1 50.35424695 20.4138839 4.08277678
3030 1 51.71517255 19.05295831 -2.1e-15
3031 1 50.35424695 17.69203271 1.36092559
3032 1 51.71517255 16.33110712 2.72185119
3033 1 53.07609814 20.4138839 6.80462797
3034 1 48.99332136 19.05295831 8.16555356
3035 1 53.07609814 17.69203271 9.52647915
3036 1 48.99332136 16.33110712 5.44370237
3037 1 50.35424695 20.4138839 9.52647915
3038 1 51.71517255 19.05295831 5.44370237
3039 1 50.35424695 17.69203271 6.80462797
3040 1 51.71517255 16.33110712 8.16555356
3041 1 53.07609814 20.4138839 12.24833034
3042 1 48.99332136 19.05295831 13.60925593
3043 1 53.07609814 17.69203271 14.97018153
3044 1 48.99332136 16.33110712 10.88740475
3045 1 50.35424695 20.4138839 14.97018153
3046 1 51.71517255 19.05295831 10.88740475
3047 1 50.35424695 17.69203271 12.24833034
3048 1 51.71517255 16.33110712 13.60925593
3049 1 53.07609814 25.85758627 1.36092559
3050 1 48.99332136 24.49666068 2.72185119
3051 1 53.07609814 23.13573509 4.08277678
3052 1 48.99332136 21.77480949 -1.21182158e-15
3053 1 50.35424695 25.85758627 4.08277678
3054 1 51.71517255 24.49666068 -1.51182158e-15
3055 1 50.35424695 23.13573509 1.36092559
3056 1 51.71517255 21.77480949 2.72185119
3057 1 53.07609814 25.85758627 6.80462797
3058 1 48.99332136 24.49666068 8.16555356
3059 1 53.07609814 23.13573509 9.52647915
3060 1 48.99332136 21.77480949 5.44370237
3061 1 50.35424695 25.85758627 9.52647915
3062 1 51.71517255 24.49666068 5.44370237
3063 1 50.35424695 23.13573509 6.80462797
3064 1 51.71517255 21.77480949 8.16555356
3065 1 53.07609814 25.85758627 12.24833034
3066 1 48.99332136 24.49666068 13.60925593
3067 1 53.07609814 23.13573509 14.97018153
3068 1 48.99332136 21.77480949 10.88740475
3069 1 50.35424695 25.85758627 14.97018153
3070 1 51.71517255 24.49666068 10.88740475
3071 1 50.35424695 23.13573509 12.24833034
3072 1 51.71517255 21.77480949 13.60925593
3073 1 53.07609814 31.30128864 1.36092559
3074 1 48.99332136 29.94036305 2.72185119
3075 1 53.07609814 28.57943746 4.08277678
3076 1 48.99332136 27.21851186 -1.51182158e-15
3077 1 50.35424695 31.30128864 4.08277678
3078 1 51.71517255 29.94036305 -1.81182158e-15
3079 1 50.35424695 28.57943746 1.36092559
3080 1 51.71517255 27.21851186 2.72185119
3081 1 53.07609814 31.30128864 6.80462797
3082 1 48.99332136 29.94036305 8.16555356
3083 1 53.07609814 28.57943746 9.52647915
3084 1 48.99332136 27.21851186 5.44370237
3085 1 50.35424695 31.30128864 9.52647915
3086 1 51.71517255 29.94036305 5.44370237
3087 1 50.35424695 28.57943746 6.80462797
3088 1 51.71517255 27.21851186 8.16555356
3089 1 53.07609814 31.30128864 12.24833034
3090 1 48.99332136 29.94036305 13.60925593
3091 1 53.07609814 28.57943746 14.97018153
3092 1 48.99332136 27.21851186 10.88740475
3093 1 50.35424695 31.30128864 14.97018153
3094 1 51.71517255 29.94036305 10.88740475
3095 1 50.35424695 28.57943746 12.24833034
3096 1 51.71517255 27.21851186 13.60925593
3097 1 58.51980051 20.4138839 1.36092559
3098 1 54.43702373 19.05295831 2.72185119
3099 1 58.51980051 17.69203271 4.08277678
3100 1 54.43702373 16.33110712 -1.21182158e-15
3101 1 55.79794932 20.4138839 4.08277678
3102 1 57.15887492 19.05295831 -1.51182158e-15
3103 1 55.79794932 17.69203271 1.36092559
3104 1 57.15887492 16.33110712 2.72185119
3105 1 58.51980051 20.4138839 6.80462797
3106 1 54.43702373 19.05295831 8.16555356
3107 1 58.51980051 17.69203271 9.52647915
3108 1 54.43702373 16.33110712 5.44370237
3109 1 55.79794932 20.4138839 9.52647915
3110 1 57.15887492 19.05295831 5.44370237
3111 1 55.79794932 17.69203271 6.80462797
3112 1 57.15887492 16.33110712 8.16555356
3113 1 58.51980051 20.4138839 12.24833034
3114 1 54.43702373 19.05295831 13.60925593
3115 1 58.51980051 17.69203271 14.97018153
3116 1 54.43702373 16.33110712 10.88740475
3117 1 55.79794932 20.4138839 14.97018153
3118 1 57.15887492 19.05295831 10.88740475
3119 1 55.79794932 17.69203271 12.24833034
3120 1 57.15887492 16.33110712 13.60925593
3121 1 58.51980051 25.85758627 1.36092559
3122 1 54.43702373 24.49666068 2.72185119
3123 1 58.51980051 23.13573509 4.08277678
3124 1 54.43702373 21.77480949 -1.51182158e-15
3125 1 55.79794932 25.85758627 4.08277678
3126 1 57.15887492 24.49666068 -1.81182158e-15
3127 1 55.79794932 23.13573509 1.36092559
3128 1 57.15887492 21.77480949 2.72185119
3129 1 58.51980051 25.85758627 6.80462797
3130 1 54.43702373 24.49666068 8.16555356
3131 1 58.51980051 23.13573509 9.52647915
3132 1 54.43702373 21.77480949 5.44370237
3133 1 55.79794932 25.85758627 9.52647915
3134 1 57.15887492 24.49666068 5.44370237
3135 1 55.79794932 23.13573509 6.80462797
3136 1 57.15887492 21.77480949 8.16555356
3137 1 58.51980051 25.85758627 12.24833034
3138 1 54.43702373 24.49666068 13.60925593
3139 1 58.51980051 23.13573509 14.97018153
3140 1 54.43702373 21.77480949 10.88740475
3141 1 55.79794932 25.85758627 14.97018153
3142 1 57.15887492 24.49666068 10.88740475
3143 1 55.79794932 23.13573509 12.24833034
3144 1 57.15887492 21.77480949 13.60925593
3145 1 58.51980051 31.30128864 1.36092559
3146 1 54.43702373 29.94036305 2.72185119
3147 1 58.51980051 28.57943746 4.08277678
3148 1 54.43702373 27.21851186 -1.81182158e-15
3149 1 55.79794932 31.30128864 4.08277678
3150 1 57.15887492 29.94036305 -2.11182158e-15
3151 1 55.79794932 28.57943746 1.36092559
3152 1 57.15887492 27.21851186 2.72185119
3153 1 58.51980051 31.30128864 6.80462797
3154 1 54.43702373 29.94036305 8.16555356
3155 1 58.51980051 28.57943746 9.52647915
3156 1 54.43702373 27.21851186 5.44370237
3157 1 55.79794932 31.30128864 9.52647915
3158 1 57.15887492 29.94036305 5.44370237
3159 1 55.79794932 28.57943746 6.80462797
3160 1 57.15887492 27.21851186 8.16555356
3161 1 58.51980051 31.30128864 12.24833034
3162 1 54.43702373 29.94036305 13.60925593
3163 1 58.51980051 28.57943746 14.97018153
3164 1 54.43702373 27.21851186 10.88740475
3165 1 55.79794932 31.30128864 14.97018153
3166 1 57.15887492 29.94036305 10.88740475
3167 1 55.79794932 28.57943746 12.24833034
3168 1 57.15887492 27.21851186 13.60925593
3169 1 63.96350288 20.4138839 1.36092559
3170 1 59.8807261 19.05295831 2.72185119
3171 1 63.96350288 17.69203271 4.08277678
3172 1 59.8807261 16.33110712 -1.51182158e-15
3173 1 61.2416517 20.4138839 4.08277678
3174 1 62.60257729 19.05295831 -1.81182158e-15
3175 1 61.2416517 17.69203271 1.36092559
3176 1 62.60257729 16.33110712 2.72185119
3177 1 63.96350288 20.4138839 6.80462797
3178 1 59.8807261 19.05295831 8.16555356
3179 1 63.96350288 17.69203271 9.52647915
3180 1 59.8807261 16.33110712 5.44370237
3181 1 61.2416517 20.4138839 9.52647915
3182 1 62.60257729 19.05295831 5.44370237
3183 1 61.2416517 17.69203271 6.80462797
3184 1 62.60257729 16.33110712 8.16555356
3185 1 63.96350288 20.4138839 12.24833034
3186 1 59.8807261 19.05295831 13.60925593
3187 1 63.96350288 17.69203271 14.97018153
3188 1 59.8807261 16.33110712 10.88740475
3189 1 61.2416517 20.4138839 14.97018153
3190 1 62.60257729 19.05295831 10.88740475
3191 1 61.2416517 17.69203271 12.24833034
3192 1 62.60257729 16.33110712 13.60925593
3193 1 63.96350288 25.85758627 1.36092559
3194 1 59.8807261 24.49666068 2.72185119
3195 1 63.96350288 23.13573509 4.08277678
3196 1 59.8807261 21.77480949 -1.81182158e-15
3197 1 61.2416517 25.85758627 4.08277678
3198 1 62.60257729 24.49666068 -2.11182158e-15
3199 1 61.2416517 23.13573509 1.36092559
3200 1 62.60257729 21.77480949 2.72185119
3201 1 63.96350288 25.85758627 6.80462797
3202 1 59.8807261 24.49666068 8.16555356
3203 1 63.96350288 23.13573509 9.52647915
3204 1 59.8807261 21.77480949 5.44370237
3205 1 61.2416517 25.85758627 9.52647915
3206 1 62.60257729 24.49666068 5.44370237
3207 1 61.2416517 23.13573509 6.80462797
3208 1 62.60257729 21.77480949 8.16555356
3209 1 63.96350288 25.85758627 12.24833034
3210 1 59.8807261 24.49666068 13.60925593
3211 1 63.96350288 23.13573509 14.97018153
3212 1 59.8807261 21.77480949 10.88740475
3213 1 61.2416517 25.85758627 14.97018153
3214 1 62.60257729 24.49666068 10.88740475
3215 1 61.2416517 23.13573509 12.24833034
3216 1 62.60257729 21.77480949 13.60925593
3217 1 63.96350288 31.30128864 1.36092559
3218 1 59.8807261 29.94036305 2.72185119
3219 1 63.96350288 28.57943746 4.08277678
3220 1 59.8807261 27.21851186 -1.22364316e-15
3221 1 61.2416517 31.30128864 4.08277678
3222 1 62.60257729 29.94036305 -1.52364316e-15
3223 1 61.2416517 28.57943746 1.36092559
3224 1 62.60257729 27.21851186 2.72185119
3225 1 63.96350288 31.30128864 6.80462797
3226 1 59.8807261 29.94036305 8.16555356
3227 1 63.96350288 28.57943746 9.52647915
3228 1 59.8807261 27.21851186 5.44370237
3229 1 61.2416517 31.30128864 9.52647915
3230 1 62.60257729 29.94036305 5.44370237
3231 1 61.2416517 28.57943746 6.80462797
3232 1 62.60257729 27.21851186 8.16555356
3233 1 63.96350288 31.30128864 12.24833034
3234 1 59.8807261 29.94036305 13.60925593
3235 1 63.96350288 28.57943746 14.97018153
3236 1 59.8807261 27.21851186 10.88740475
3237 1 61.2416517 31.30128864 14.97018153
3238 1 62.60257729 29.94036305 10.88740475
3239 1 61.2416517 28.57943746 12.24833034
3240 1 62.60257729 27.21851186 13.60925593
3241 1 53.07609814 20.4138839 17.69203271
3242 1 48.99332136 19.05295831 19.05295831
3243 1 53.07609814 17.69203271 20.4138839
3244 1 48.99332136 16.33110712 16.33110712
3245 1 50.35424695 20.4138839 20.4138839
3246 1 51.71517255 19.05295831 16.33110712
3247 1 50.35424695 17.69203271 17.69203271
3248 1 51.71517255 16.33110712 19.05295831
3249 1 53.07609814 20.4138839 23.13573508
3250 1 48.99332136 19.05295831 24.49666068
3251 1 53.07609814 17.69203271 25.85758627
3252 1 48.99332136 16.33110712 21.77480949
3253 1 50.35424695 20.4138839 25.85758627
3254 1 51.71517255 19.05295831 21.77480949
3255 1 50.35424695 17.69203271 23.13573508
3256 1 51.71517255 16.33110712 24.49666068
3257 1 53.07609814 20.4138839 28.57943746
3258 1 48.99332136 19.05295831 29.94036305
3259 1 53.07609814 17.69203271 31.30128864
3260 1 48.99332136 16.33110712 27.21851186
3261 1 50.35424695 20.4138839 31.30128864
3262 1 51.71517255 19.05295831 27.21851186
3263 1 50.35424695 17.69203271 28.57943746
3264 1 51.71517255 16.33110712 29.94036305
3265 1 53.07609814 25.85758627 17.69203271
3266 1 48.99332136 24.49666068 19.05295831
3267 1 53.07609814 23.13573509 20.4138839
3268 1 48.99332136 21.77480949 16.33110712
3269 1 50.35424695 25.85758627 20.4138839
3270 1 51.71517255 24.49666068 16.33110712
3271 1 50.35424695 23.13573509 17.69203271
3272 1 51.71517255 21.77480949 19.05295831
3273 1 53.07609814 25.85758627 23.13573508
3274 1 48.99332136 24.49666068 24.49666068
3275 1 53.07609814 23.13573509 25.85758627
3276 1 48.99332136 21.77480949 21.77480949
3277 1 50.35424695 25.85758627 25.85758627
3278 1 51.71517255 24.49666068 21.77480949
3279 1 50.35424695 23.13573509 23.13573508
3280 1 51.71517255 21.77480949 24.49666068
3281 1 53.07609814 25.85758627 28.57943746
3282 1 48.99332136 24.49666068 29.94036305
3283 1 53.07609814 23.13573509 31.30128864
3284 1 48.99332136 21.77480949 27.21851186
3285 1 50.35424695 25.85758627 31.30128864
3286 1 51.71517255 24.49666068 27.21851186
3287 1 50.35424695 23.13573509 28.57943746
3288 1 51.71517255 21.77480949 29.94036305
3289 1 53.07609814 31.30128864 17.69203271
3290 1 48.99332136 29.94036305 19.05295831
3291 1 53.07609814 28.57943746 20.4138839
3292 1 48.99332136 27.21851186 16.33110712
3293 1 50.35424695 31.30128864 20.4138839
3294 1 51.71517255 29.94036305 16.33110712
3295 1 50.35424695 28.57943746 17.69203271
3296 1 51.71517255 27.21851186 19.05295831
3297 1 53.07609814 31.30128864 23.13573508
3298 1 48.99332136 29.94036305 24.49666068
3299 1 53.07609814 28.57943746 25.85758627
3300 1 48.99332136 27.21851186 21.77480949
3301 1 50.35424695 31.30128864 25.85758627
3302 1 51.71517255 29.94036305 21.77480949
3303 1 50.35424695 28.57943746 23.13573508
3304 1 51.71517255 27.21851186 24.49666068
3305 1 53.07609814 31.30128864 28.57943746
3306 1 48.99332136 29.94036305 29.94036305
3307 1 53.07609814 28.57943746 31.30128864
3308 1 48.99332136 27.21851186 27.21851186
3309 1 50.35424695 31.30128864 31.30128864
3310 1 51.71517255 29.94036305 27.21851186
3311 1 50.35424695 28.57943746 28.57943746
3312 1 51.71517255 27.21851186 29.94036305
3313 1 58.51980051 20.4138839 17.69203271
3314 1 54.43702373 19.05295831 19.05295831
3315 1 58.51980051 17.69203271 20.4138839
3316 1 54.43702373 16.33110712 16.33110712
3317 1 55.79794932 20.4138839 20.4138839
3318 1 57.15887492 19.05295831 16.33110712
3319 1 55.79794932 17.69203271 17.69203271
3320 1 57.15887492 16.33110712 19.05295831
3321 1 58.51980051 20.4138839 23.13573508
3322 1 54.43702373 19.05295831 24.49666068
3323 1 58.51980051 17.69203271 25.85758627
3324 1 54.43702373 16.33110712 21.77480949
3325 1 55.79794932 20.4138839 25.85758627
3326 1 57.15887492 19.05295831 21.77480949
3327 1 55.79794932 17.69203271 23.13573508
3328 1 57.15887492 16.33110712 24.49666068
3329 1 58.51980051 20.4138839 28.57943746
3330 1 54.43702373 19.05295831 29.94036305
3331 1 58.51980051 17.69203271 31.30128864
3332 1 54.43702373 16.33110712 27.21851186
3333 1 55.79794932 20.4138839 31.30128864
3334 1 57.15887492 19.05295831 27.21851186
3335 1 55.79794932 17.69203271 28.57943746
3336 1 57.15887492 16.33110712 29.94036305
3337 1 58.51980051 25.85758627 17.69203271
3338 1 54.43702373 24.49666068 19.05295831
3339 1 58.51980051 23.13573509 20.4138839
3340 1 54.43702373 21.77480949 16.33110712
3341 1 55.79794932 25.85758627 20.4138839
3342 1 57.15887492 24.49666068 16.33110712
3343 1 55.79794932 23.13573509 17.69203271
3344 1 57.15887492 21.77480949 19.05295831
3345 1 58.51980051 25.85758627 23.13573508
3346 1 54.43702373 24.49666068 24.49666068
3347 1 58.51980051 23.13573509 25.85758627
3348 1 54.43702373 21.77480949 21.77480949
3349 1 55.79794932 25.85758627 25.85758627
3350 1 57.15887492 24.49666068 21.77480949
3351 1 55.79794932 23.13573509 23.13573508
3352 1 57.15887492 21.77480949 24.49666068
3353 1 58.51980051 25.85758627 28.57943746
3354 1 54.43702373 24.49666068 29.94036305
3355 1 58.51980051 23.13573509 31.30128864
3356 1 54.43702373 21.77480949 27.21851186
3357 1 55.79794932 25.85758627 31.30128864
3358 1 57.15887492 24.49666068 27.21851186
3359 1 55.79794932 23.13573509 28.57943746
3360 1 57.15887492 21.77480949 29.94036305
3361 1 58.51980051 31.30128864 17.69203271
3362 1 54.43702373 29.94036305 19.05295831
3363 1 58.51980051 28.57943746 20.4138839
3364 1 54.43702373 27.21851186 16.33110712
3365 1 55.79794932 31.30128864 20.4138839
3366 1 57.15887492 29.94036305 16.33110712
3367 1 55.79794932 28.57943746 17.69203271
3368 1 57.15887492 27.21851186 19.05295831
3369 1 58.51980051 31.30128864 23.13573508
3370 1 54.43702373 29.94036305 24.49666068
3371 1 58.51980051 28.57943746 25.85758627
3372 1 54.43702373 27.21851186 21.77480949
3373 1 55.79794932 31.30128864 25.85758627
3374 1 57.15887492 29.94036305 21.77480949
3375 1 55.79794932 28.57943746 23.13573508
3376 1 57.15887492 27.21851186 24.49666068
3377 1 58.51980051 31.30128864 28.57943746
3378 1 54.43702373 29.94036305 29.94036305
3379 1 58.51980051 28.57943746 31.30128864
3380 1 54.43702373 27.21851186 27.21851186
3381 1 55.79794932 31.30128864 31.30128864
3382 1 57.15887492 29.94036305 27.21851186
3383 1 55.79794932 28.57943746 28.57943746
3384 1 57.15887492 27.21851186 29.94036305
3385 1 63.96350288 20.4138839 17.69203271
3386 1 59.8807261 19.05295831 19.05295831
3387 1 63.96350288 17.69203271 20.4138839
3388 1 59.8807261 16.33110712 16.33110712
3389 1 61.2416517 20.4138839 20.4138839
3390 1 62.60257729 19.05295831 16.33110712
3391 1 61.2416517 17.69203271 17.69203271
3392 1 62.60257729 16.33110712 19.05295831
3393 1 63.96350288 20.4138839 23.13573508
3394 1 59.8807261 19.05295831 24.49666068
3395 1 63.96350288 17.69203271 25.85758627
3396 1 59.8807261 16.33110712 21.77480949
3397 1 61.2416517 20.4138839 25.85758627
3398 1 62.60257729 19.05295831 21.77480949
3399 1 61.2416517 17.69203271 23.13573508
3400 1 62.60257729 16.33110712 24.49666068
3401 1 63.96350288 20.4138839 28.57943746
3402 1 59.8807261 19.05295831 29.94036305
3403 1 63.96350288 17.69203271 31.30128864
3404 1 59.8807261 16.33110712 27.21851186
3405 1 61.2416517 20.4138839 31.30128864
3406 1 62.60257729 19.05295831 27.21851186
3407 1 61.2416517 17.69203271 28.57943746
3408 1 62.60257729 16.33110712 29.94036305
3409 1 63.96350288 25.85758627 17.69203271
3410 1 59.8807261 24.49666068 19.05295831
3411 1 63.96350288 23.13573509 20.4138839
3412 1 59.8807261 21.77480949 16.33110712
3413 1 61.2416517 25.85758627 20.4138839
3414 1 62.60257729 24.49666068 16.33110712
3415 1 61.2416517 23.13573509 17.69203271
3416 1 62.60257729 21.77480949 19.05295831
3417 1 63.96350288 25.85758627 23.13573508
3418 1 59.8807261 24.49666068 24.49666068
3419 1 63.96350288 23.13573509 25.85758627
3420 1 59.8807261 21.77480949 21.77480949
3421 1 61.2416517 25.85758627 25.85758627
3422 1 62.60257729 24.49666068 21.77480949
3423 1 61.2416517 23.13573509 23.13573508
3424 1 62.60257729 21.77480949 24.49666068
3425 1 63.96350288 25.85758627 28.57943746
3426 1 59.8807261 24.49666068 29.94036305
3427 1 63.96350288 23.13573509 31.30128864
3428 1 59.8807261 21.77480949 27.21851186
3429 1 61.2416517 25.85758627 31.30128864
3430 1 62.60257729 24.49666068 27.21851186
3431 1 61.2416517 23.13573509 28.57943746
3432 1 62.60257729 21.77480949 29.94036305
3433 1 63.96350288 31.30128864 17.69203271
3434 1 59.8807261 29.94036305 19.05295831
3435 1 63.96350288 28.57943746 20.4138839
3436 1 59.8807261 27.21851186 16.33110712
3437 1 61.2416517 31.30128864 20.4138839
3438 1 62.60257729 29.94036305 16.33110712
3439 1 61.2416517 28.57943746 17.69203271
3440 1 62.60257729 27.21851186 19.05295831
3441 1 63.96350288 31.30128864 23.13573508
3442 1 59.8807261 29.94036305 24.49666068
3443 1 63.96350288 28.57943746 25.85758627
3444 1 59.8807261 27.21851186 21.77480949
3445 1 61.2416517 31.30128864 25.85758627
3446 1 62.60257729 29.94036305 21.77480949
3447 1 61.2416517 28.57943746 23.13573508
3448 1 62.60257729 27.21851186 24.49666068
3449 1 63.96350288 31.30128864 28.57943746
3450 1 59.8807261 29.94036305 29.94036305
3451 1 63.96350288 28.57943746 31.30128864
3452 1 59.8807261 27.21851186 27.21851186
3453 1 61.2416517 31.30128864 31.30128864
3454 1 62.60257729 29.94036305 27.21851186
3455 1 61.2416517 28.57943746 28.57943746
3456 1 62.60257729 27.21851186 29.94036305
3457 1 69.40720526 4.08277678 1.36092559
3458 1 65.32442848 2.72185119 2.72185119
3459 1 69.40720526 1.36092559 4.08277678
3460 1 65.32442848 -4.3790577e-47 -1.8e-15
3461 1 66.68535407 4.08277678 4.08277678
3462 1 68.04627966 2.72185119 -2.1e-15
3463 1 66.68535407 1.36092559 1.36092559
3464 1 68.04627966 1.5e-16 2.72185119
3465 1 69.40720526 4.08277678 6.80462797
3466 1 65.32442848 2.72185119 8.16555356
3467 1 69.40720526 1.36092559 9.52647915
3468 1 65.32442848 3.0e-16 5.44370237
3469 1 66.68535407 4.08277678 9.52647915
3470 1 68.04627966 2.72185119 5.44370237
3471 1 66.68535407 1.36092559 6.80462797
3472 1 68.04627966 4.5e-16 8.16555356
3473 1 69.40720526 4.08277678 12.24833034
3474 1 65.32442848 2.72185119 13.60925593
3475 1 69.40720526 1.36092559 14.97018153
3476 1 65.32442848 6.0e-16 10.88740475
3477 1 66.68535407 4.08277678 14.97018153
3478 1 68.04627966 2.72185119 10.88740475
3479 1 66.68535407 1.36092559 12.24833034
3480 1 68.04627966 7.5e-16 13.60925593
3481 1 69.40720526 9.52647915 1.36092559
3482 1 65.32442848 8.16555356 2.72185119
3483 1 69.40720526 6.80462797 4.08277678
3484 1 65.32442848 5.44370237 -1.21182158e-15
3485 1 66.68535407 9.52647915 4.08277678
3486 1 68.04627966 8.16555356 -1.51182158e-15
3487 1 66.68535407 6.80462797 1.36092559
3488 1 68.04627966 5.44370237 2.72185119
3489 1 69.40720526 9.52647915 6.80462797
3490 1 65.32442848 8.16555356 8.16555356
3491 1 69.40720526 6.80462797 9.52647915
3492 1 65.32442848 5.44370237 5.44370237
3493 1 66.68535407 9.52647915 9.52647915
3494 1 68.04627966 8.16555356 5.44370237
3495 1 66.68535407 6.80462797 6.80462797
3496 1 68.04627966 5.44370237 8.16555356
3497 1 69.40720526 9.52647915 12.24833034
3498 1 65.32442848 8.16555356 13.60925593
3499 1 69.40720526 6.80462797 14.97018153
3500 1 65.32442848 5.44370237 10.88740475
3501 1 66.68535407 9.52647915 14.97018153
3502 1 68.04627966 8.16555356 10.88740475
3503 1 66.68535407 6.80462797 12.24833034
3504 1 68.04627966 5.44370237 13.60925593
3505 1 69.40720526 14.97018153 1.36092559
3506 1 65.32442848 13.60925593 2.72185119
3507 1 69.40720526 12.24833034 4.08277678
3508 1 65.32442848 10.88740475 -1.51182158e-15
3509 1 66.68535407 14.97018153 4.08277678
3510 1 68.04627966 13.60925593 -1.81182158e-15
3511 1 66.68535407 12.24833034 1.36092559
3512 1 68.04627966 10.88740475 2.72185119
3513 1 69.40720526 14.97018153 6.80462797
3514 1 65.32442848 13.60925593 8.16555356
3515 1 69.40720526 12.24833034 9.52647915
3516 1 65.32442848 10.88740475 5.44370237
3517 1 66.68535407 14.97018153 9.52647915
3518 1 68.04627966 13.60925593 5.44370237
3519 1 66.68535407 12.24833034 6.80462797
3520 1 68.04627966 10.88740475 8.16555356
3521 1 69.40720526 14.97018153 12.24833034
3522 1 65.32442848 13.60925593 13.60925593
3523 1 69.40720526 12.24833034 14.97018153
3524 1 65.32442848 10.88740475 10.88740475
3525 1 66.68535407 14.97018153 14.97018153
3526 1 68.04627966 13.60925593 10.88740475
3527 1 66.68535407 12.24833034 12.24833034
3528 1 68.04627966 10.88740475 13.60925593
3529 1 74.85090763 4.08277678 1.36092559
3530 1 70.76813085 2.72185119 2.72185119
3531 1 74.85090763 1.36092559 4.08277678
3532 1 70.76813085 3.24142493e-32 -1.21182158e-15
3533 1 72.12905644 4.08277678 4.08277678
3534 1 73.48998204 2.72185119 -1.51182158e-15
3535 1 72.12905644 1.36092559 1.36092559
3536 1 73.48998204 1.5e-16 2.72185119
3537 1 74.85090763 4.08277678 6.80462797
3538 1 70.76813085 2.72185119 8.16555356
3539 1 74.85090763 1.36092559 9.52647915
3540 1 70.76813085 3.0e-16 5.44370237
3541 1 72.12905644 4.08277678 9.52647915
3542 1 73.48998204 2.72185119 5.44370237
3543 1 72.12905644 1.36092559 6.80462797
3544 1 73.48998204 4.5e-16 8.16555356
3545 1 74.85090763 4.08277678 12.24833034
3546 1 70.76813085 2.72185119 13.60925593
3547 1 74.85090763 1.36092559 14.97018153
3548 1 70.76813085 6.0e-16 10.88740475
3549 1 72.12905644 4.08277678 14.97018153
3550 1 73.48998204 2.72185119 10.88740475
3551 1 72.12905644 1.36092559 12.24833034
3552 1 73.48998204 7.5e-16 13.60925593
3553 1 74.85090763 9.52647915 1.36092559
3554 1 70.76813085 8.16555356 2.72185119
3555 1 74.85090763 6.80462797 4.08277678
3556 1 70.76813085 5.44370237 -1.51182158e-15
3557 1 72.12905644 9.52647915 4.08277678
3558 1 73.48998204 8.16555356 -1.81182158e-15
3559 1 72.12905644 6.80462797 1.36092559
3560 1 73.48998204 5.44370237 2.72185119
3561 1 74.85090763 9.52647915 6.80462797
3562 1 70.76813085 8.16555356 8.16555356
3563 1 74.85090763 6.80462797 9.52647915
3564 1 70.76813085 5.44370237 5.44370237
3565 1 72.12905644 9.52647915 9.52647915
3566 1 73.48998204 8.16555356 5.44370237
3567 1 72.12905644 6.80462797 6.80462797
3568 1 73.48998204 5.44370237 8.16555356
3569 1 74.85090763 9.52647915 12.24833034
3570 1 70.76813085 8.16555356 13.60925593
3571 1 74.85090763 6.80462797 14.97018153
3572 1 70.76813085 5.44370237 10.88740475
3573 1 72.12905644 9.52647915 14.97018153
3574 1 73.48998204 8.16555356 10.88740475
3575 1 72.12905644 6.80462797 12.24833034
3576 1 73.48998204 5.44370237 13.60925593
3577 1 74.85090763 14.97018153 1.36092559
3578 1 70.76813085 13.60925593 2.72185119
3579 1 74.85090763 12.24833034 4.08277678
3580 1 70.76813085 10.88740475 -1.81182158e-15
3581 1 72.12905644 14.97018153 4.08277678
3582 1 73.48998204 13.60925593 -2.11182158e-15
3583 1 72.12905644 12.24833034 1.36092559
3584 1 73.48998204 10.88740475 2.72185119
3585 1 74.85090763 14.97018153 6.80462797
3586 1 70.76813085 13.60925593 8.16555356
3587 1 74.85090763 12.24833034 9.52647915
3588 1 70.76813085 10.88740475 5.44370237
3589 1 72.12905644 14.97018153 9.52647915
3590 1 73.48998204 13.60925593 5.44370237
3591 1 72.12905644 12.24833034 6.80462797
3592 1 73.48998204 10.88740475 8.16555356
3593 1 74.85090763 14.97018153 12.24833034
3594 1 70.76813085 13.60925593 13.60925593
3595 1 74.85090763 12.24833034 14.97018153
3596 1 70.76813085 10.88740475 10.88740475
3597 1 72.12905644 14.97018153 14.97018153
3598 1 73.48998204 13.60925593 10.88740475
3599 1 72.12905644 12.24833034 12.24833034
3600 1 73.48998204 10.88740475 13.60925593
3601 1 80.29461 4.08277678 1.36092559
3602 1 76.21183322 2.72185119 2.72185119
3603 1 80.29461 1.36092559 4.08277678
3604 1 76.21183322 1.58813837e-32 -1.51182158e-15
3605 1 77.57275882 4.08277678 4.08277678
3606 1 78.93368441 2.72185119 -1.81182158e-15
3607 1 77.57275882 1.36092559 1.36092559
3608 1 78.93368441 1.5e-16 2.72185119
3609 1 80.29461 4.08277678 6.80462797
3610 1 76.21183322 2.72185119 8.16555356
3611 1 80.29461 1.36092559 9.52647915
3612 1 76.21183322 3.0e-16 5.44370237
3613 1 77.57275882 4.08277678 9.52647915
3614 1 78.93368441 2.72185119 5.44370237
3615 1 77.57275882 1.36092559 6.80462797
3616 1 78.93368441 4.5e-16 8.16555356
3617 1 80.29461 4.08277678 12.24833034
3618 1 76.21183322 2.72185119 13.60925593
3619 1 80.29461 1.36092559 14.97018153
3620 1 76.21183322 6.0e-16 10.88740475
3621 1 77.57275882 4.08277678 14.97018153
3622 1 78.93368441 2.72185119 10.88740475
3623 1 77.57275882 1.36092559 12.24833034
3624 1 78.93368441 7.5e-16 13.60925593
3625 1 80.29461 9.52647915 1.36092559
3626 1 76.21183322 8.16555356 2.72185119
3627 1 80.29461 6.80462797 4.08277678
3628 1 76.21183322 5.44370237 -1.81182158e-15
3629 1 77.57275882 9.52647915 4.08277678
3630 1 78.93368441 8.16555356 -2.11182158e-15
3631 1 77.57275882 6.80462797 1.36092559
3632 1 78.93368441 5.44370237 2.72185119
3633 1 80.29461 9.52647915 6.80462797
3634 1 76.21183322 8.16555356 8.16555356
3635 1 80.29461 6.80462797 9.52647915
3636 1 76.21183322 5.44370237 5.44370237
3637 1 77.57275882 9.52647915 9.52647915
3638 1 78.93368441 8.16555356 5.44370237
3639 1 77.57275882 6.80462797 6.80462797
3640 1 78.93368441 5.44370237 8.16555356
3641 1 80.29461 9.52647915 12.24833034
3642 1 76.21183322 8.16555356 13.60925593
3643 1 80.29461 6.80462797 14.97018153
3644 1 76.21183322 5.44370237 10.88740475
3645 1 77.57275882 9.52647915 14.97018153
3646 1 78.93368441 8.16555356 10.88740475
3647 1 77.57275882 6.80462797 12.24833034
3648 1 78.93368441 5.44370237 13.60925593
3649 1 80.29461 14.97018153 1.36092559
3650 1 76.21183322 13.60925593 2.72185119
3651 1 80.29461 12.24833034 4.08277678
3652 1 76.21183322 10.88740475 -1.22364316e-15
3653 1 77.57275882 14.97018153 4.08277678
3654 1 78.93368441 13.60925593 -1.52364316e-15
3655 1 77.57275882 12.24833034 1.36092559
3656 1 78.93368441 10.88740475 2.72185119
3657 1 80.29461 14.97018153 6.80462797
3658 1 76.21183322 13.60925593 8.16555356
3659 1 80.29461 12.24833034 9.52647915
3660 1 76.21183322 10.88740475 5.44370237
3661 1 77.57275882 14.97018153 9.52647915
3662 1 78.93368441 13.60925593 5.44370237
3663 1 77.57275882 12.24833034 6.80462797
3664 1 78.93368441 10.88740475 8.16555356
3665 1 80.29461 14.97018153 12.24833034
3666 1 76.21183322 13.60925593 13.60925593
3667 1 80.29461 12.24833034 14.97018153
3668 1 76.21183322 10.88740475 10.88740475
3669 1 77.57275882 14.97018153 14.97018153
3670 1 78.93368441 13.60925593 10.88740475
3671 1 77.57275882 12.24833034 12.24833034
3672 1 78.93368441 10.88740475 13.60925593
3673 1 69.40720526 4.08277678 17.69203271
3674 1 65.32442848 2.72185119 19.05295831
3675 1 69.40720526 1.36092559 20.4138839
3676 1 65.32442848 9.0e-16 16.33110712
3677 1 66.68535407 4.08277678 20.4138839
3678 1 68.04627966 2.72185119 16.33110712
3679 1 66.68535407 1.36092559 17.69203271
3680 1 68.04627966 1.05e-15 19.05295831
3681 1 69.40720526 4.08277678 23.13573508
3682 1 65.32442848 2.72185119 24.49666068
3683 1 69.40720526 1.36092559 25.85758627
3684 1 65.32442848 1.2e-15 21.77480949
3685 1 66.68535407 4.08277678 25.85758627
3686 1 68.04627966 2.72185119 21.77480949
3687 1 66.68535407 1.36092559 23.13573508
3688 1 68.04627966 1.35e-15 24.49666068
3689 1 69.40720526 4.08277678 28.57943746
3690 1 65.32442848 2.72185119 29.94036305
3691 1 69.40720526 1.36092559 31.30128864
3692 1 65.32442848 1.5e-15 27.21851186
3693 1 66.68535407 4.08277678 31.30128864
3694 1 68.04627966 2.72185119 27.21851186
3695 1 66.68535407 1.36092559 28.57943746
3696 1 68.04627966 1.65e-15 29.94036305
3697 1 69.40720526 9.52647915 17.69203271
3698 1 65.32442848 8.16555356 19.05295831
3699 1 69.40720526 6.80462797 20.4138839
3700 1 65.32442848 5.44370237 16.33110712
3701 1 66.68535407 9.52647915 20.4138839
3702 1 68.04627966 8.16555356 16.33110712
3703 1 66.68535407 6.80462797 17.69203271
3704 1 68.04627966 5.44370237 19.05295831
3705 1 69.40720526 9.52647915 23.13573508
3706 1 65.32442848 8.16555356 24.49666068
3707 1 69.40720526 6.80462797 25.85758627
3708 1 65.32442848 5.44370237 21.77480949
3709 1 66.68535407 9.52647915 25.85758627
3710 1 68.04627966 8.16555356 21.77480949
3711 1 66.68535407 6.80462797 23.13573508
3712 1 68.04627966 5.44370237 24.49666068
3713 1 69.40720526 9.52647915 28.57943746
3714 1 65.32442848 8.16555356 29.94036305
3715 1 69.40720526 6.80462797 31.30128864
3716 1 65.32442848 5.44370237 27.21851186
3717 1 66.68535407 9.52647915 31.30128864
3718 1 68.04627966 8.16555356 27.21851186
3719 1 66.68535407 6.80462797 28.57943746
3720 1 68.04627966 5.44370237 29.94036305
3721 1 69.40720526 14.97018153 17.69203271
3722 1 65.32442848 13.60925593 19.05295831
3723 1 69.40720526 12.24833034 20.4138839
3724 1 65.32442848 10.88740475 16.33110712
3725 1 66.68535407 14.97018153 20.4138839
3726 1 68.04627966 13.60925593 16.33110712
3727 1 66.68535407 12.24833034 17.69203271
3728 1 68.04627966 10.88740475 19.05295831
3729 1 69.40720526 14.97018153 23.13573508
3730 1 65.32442848 13.60925593 24.49666068
3731 1 69.40720526 12.24833034 25.85758627
3732 1 65.32442848 10.88740475 21.77480949
3733 1 66.68535407 14.97018153 25.85758627
3734 1 68.04627966 13.60925593 21.77480949
3735 1 66.68535407 12.24833034 23.13573508
3736 1 68.04627966 10.88740475 24.49666068
3737 1 69.40720526 14.97018153 28.57943746
3738 1 65.32442848 13.60925593 29.94036305
3739 1 69.40720526 12.24833034 31.30128864
3740 1 65.32442848 10.88740475 27.21851186
3741 1 66.68535407 14.97018153 31.30128864
3742 1 68.04627966 13.60925593 27.21851186
3743 1 66.68535407 12.24833034 28.57943746
3744 1 68.04627966 10.88740475 29.94036305
3745 1 74.85090763 4.08277678 17.69203271
3746 1 70.76813085 2.72185119 19.05295831
3747 1 74.85090763 1.36092559 20.4138839
3748 1 70.76813085 9.0e-16 16.33110712
3749 1 72.12905644 4.08277678 20.4138839
3750 1 73.48998204 2.72185119 16.33110712
3751 1 72.12905644 1.36092559 17.69203271
3752 1 73.48998204 1.05e-15 19.05295831
3753 1 74.85090763 4.08277678 23.13573508
3754 1 70.76813085 2.72185119 24.49666068
3755 1 74.85090763 1.36092559 25.85758627
3756 1 70.76813085 1.2e-15 21.77480949
3757 1 72.12905644 4.08277678 25.85758627
3758 1 73.48998204 2.72185119 21.77480949
3759 1 72.12905644 1.36092559 23.13573508
3760 1 73.48998204 1.35e-15 24.49666068
3761 1 74.85090763 4.08277678 28.57943746
3762 1 70.76813085 2.72185119 29.94036305
3763 1 74.85090763 1.36092559 31.30128864
3764 1 70.76813085 1.5e-15 27.21851186
3765 1 72.12905644 4.08277678 31.30128864
3766 1 73.48998204 2.72185119 27.21851186
3767 1 72.12905644 1.36092559 28.57943746
3768 1 73.48998204 1.65e-15 29.94036305
3769 1 74.85090763 9.52647915 17.69203271
3770 1 70.76813085 8.16555356 19.05295831
3771 1 74.85090763 6.80462797 20.4138839
3772 1 70.76813085 5.44370237 16.33110712
3773 1 72.12905644 9.52647915 20.4138839
3774 1 73.48998204 8.16555356 16.33110712
3775 1 72.12905644 6.80462797 17.69203271
3776 1 73.48998204 5.44370237 19.05295831
3777 1 74.85090763 9.52647915 23.13573508
3778 1 70.76813085 8.16555356 24.49666068
3779 1 74.85090763 6.80462797 25.85758627
3780 1 70.76813085 5.44370237 21.77480949
3781 1 72.12905644 9.52647915 25.85758627
3782 1 73.48998204 8.16555356 21.77480949
3783 1 72.12905644 6.80462797 23.13573508
3784 1 73.48998204 5.44370237 24.49666068
3785 1 74.85090763 9.52647915 28.57943746
3786 1 70.76813085 8.16555356 29.94036305
3787 1 74.85090763 6.80462797 31.30128864
3788 1 70.76813085 5.44370237 27.21851186
3789 1 72.12905644 9.52647915 31.30128864
3790 1 73.48998204 8.16555356 27.21851186
3791 1 72.12905644 6.80462797 28.57943746
3792 1 73.48998204 5.44370237 29.94036305
3793 1 74.85090763 14.97018153 17.69203271
3794 1 70.76813085 13.60925593 19.05295831
3795 1 74.85090763 12.24833034 20.4138839
3796 1 70.76813085 10.88740475 16.33110712
3797 1 72.12905644 14.97018153 20.4138839
3798 1 73.48998204 13.60925593 16.33110712
3799 1 72.12905644 12.24833034 17.69203271
3800 1 73.48998204 10.88740475 19.05295831
3801 1 74.85090763 14.97018153 23.13573508
3802 1 70.76813085 13.60925593 24.49666068
3803 1 74.85090763 12.24833034 25.85758627
3804 1 70.76813085 10.88740475 21.77480949
3805 1 72.12905644 14.97018153 25.85758627
3806 1 73.48998204 13.60925593 21.77480949
3807 1 72.12905644 12.24833034 23.13573508
3808 1 73.48998204 10.88740475 24.49666068
3809 1 74.85090763 14.97018153 28.57943746
3810 1 70.76813085 13.60925593 29.94036305
3811 1 74.85090763 12.24833034 31.30128864
3812 1 70.76813085 10.88740475 27.21851186
3813 1 72.12905644 14.97018153 31.30128864
3814 1 73.48998204 13.60925593 27.21851186
3815 1 72.12905644 12.24833034 28.57943746
3816 1 73.48998204 10.88740475 29.94036305
3817 1 80.29461 4.08277678 17.69203271
3818 1 76.21183322 2.72185119 19.05295831
3819 1 80.29461 1.36092559 20.4138839
3820 1 76.21183322 9.0e-16 16.33110712
3821 1 77.57275882 4.08277678 20.4138839
3822 1 78.93368441 2.72185119 16.33110712
3823 1 77.57275882 1.36092559 17.69203271
3824 1 78.93368441 1.05e-15 19.05295831
3825 1 80.29461 4.08277678 23.13573508
3826 1 76.21183322 2.72185119 24.49666068
3827 1 80.29461 1.36092559 25.85758627
3828 1 76.21183322 1.2e-15 21.77480949
3829 1 77.57275882 4.08277678 25.85758627
3830 1 78.93368441 2.72185119 21.77480949
3831 1 77.57275882 1.36092559 23.13573508
3832 1 78.93368441 1.35e-15 24.49666068
3833 1 80.29461 4.08277678 28.57943746
3834 1 76.21183322 2.72185119 29.94036305
3835 1 80.29461 1.36092559 31.30128864
3836 1 76.21183322 1.5e-15 27.21851186
3837 1 77.57275882 4.08277678 31.30128864
3838 1 78.93368441 2.72185119 27.21851186
3839 1 77.57275882 1.36092559 28.57943746
3840 1 78.93368441 1.65e-15 29.94036305
3841 1 80.29461 9.52647915 17.69203271
3842 1 76.21183322 8.16555356 19.05295831
3843 1 80.29461 6.80462797 20.4138839
3844 1 76.21183322 5.44370237 16.33110712
3845 1 77.57275882 9.52647915 20.4138839
3846 1 78.93368441 8.16555356 16.33110712
3847 1 77.57275882 6.80462797 17.69203271
3848 1 78.93368441 5.44370237 19.05295831
3849 1 80.29461 9.52647915 23.13573508
3850 1 76.21183322 8.16555356 24.49666068
3851 1 80.29461 6.80462797 25.85758627
3852 1 76.21183322 5.44370237 21.77480949
3853 1 77.57275882 9.52647915 25.85758627
3854 1 78.93368441 8.16555356 21.77480949
3855 1 77.57275882 6.80462797 23.13573508
3856 1 78.93368441 5.44370237 24.49666068
3857 1 80.29461 9.52647915 28.57943746
3858 1 76.21183322 8.16555356 29.94036305
3859 1 80.29461 6.80462797 31.30128864
3860 1 76.21183322 5.44370237 27.21851186
3861 1 77.57275882 9.52647915 31.30128864
3862 1 78.93368441 8.16555356 27.21851186
3863 1 77.57275882 6.80462797 28.57943746
3864 1 78.93368441 5.44370237 29.94036305
3865 1 80.29461 14.97018153 17.69203271
3866 1 76.21183322 13.60925593 19.05295831
3867 1 80.29461 12.24833034 20.4138839
3868 1 76.21183322 10.88740475 16.33110712
3869 1 77.57275882 14.97018153 20.4138839
3870 1 78.93368441 13.60925593 16.33110712
3871 1 77.57275882 12.24833034 17.69203271
3872 1 78.93368441 10.88740475 19.05295831
3873 1 80.29461 14.97018153 23.13573508
3874 1 76.21183322 13.60925593 24.49666068
3875 1 80.29461 12.24833034 25.85758627
3876 1 76.21183322 10.88740475 21.77480949
3877 1 77.57275882 14.97018153 25.85758627
3878 1 78.93368441 13.60925593 21.77480949
3879 1 77.57275882 12.24833034 23.13573508
3880 1 78.93368441 10.88740475 24.49666068
3881 1 80.29461 14.97018153 28.57943746
3882 1 76.21183322 13.60925593 29.94036305
3883 1 80.29461 12.24833034 31.30128864
3884 1 76.21183322 10.88740475 27.21851186
3885 1 77.57275882 14.97018153 31.30128864
3886 1 78.93368441 13.60925593 27.21851186
3887 1 77.57275882 12.24833034 28.57943746
3888 1 78.93368441 10.88740475 29.94036305
3889 1 69.40720526 20.4138839 1.36092559
3890 1 65.32442848 19.05295831 2.72185119
3891 1 69.40720526 17.69203271 4.08277678
3892 1 65.32442848 16.33110712 -1.8e-15
3893 1 66.68535407 20.4138839 4.08277678
3894 1 68.04627966 19.05295831 -2.1e-15
3895 1 66.68535407 17.69203271 1.36092559
3896 1 68.04627966 16.33110712 2.72185119
3897 1 69.40720526 20.4138839 6.80462797
3898 1 65.32442848 19.05295831 8.16555356
3899 1 69.40720526 17.69203271 9.52647915
3900 1 65.32442848 16.33110712 5.44370237
3901 1 66.68535407 20.4138839 9.52647915
3902 1 68.04627966 19.05295831 5.44370237
3903 1 66.68535407 17.69203271 6.80462797
3904 1 68.04627966 16.33110712 8.16555356
3905 1 69.40720526 20.4138839 12.24833034
3906 1 65.32442848 19.05295831 13.60925593
3907 1 69.40720526 17.69203271 14.97018153
3908 1 65.32442848 16.33110712 10.88740475
3909 1 66.68535407 20.4138839 14.97018153
3910 1 68.04627966 19.05295831 10.88740475
3911 1 66.68535407 17.69203271 12.24833034
3912 1 68.04627966 16.33110712 13.60925593
3913 1 69.40720526 25.85758627 1.36092559
3914 1 65.32442848 24.49666068 2.72185119
3915 1 69.40720526 23.13573509 4.08277678
3916 1 65.32442848 21.77480949 -1.21182158e-15
3917 1 66.68535407 25.85758627 4.08277678
3918 1 68.04627966 24.49666068 -1.51182158e-15
3919 1 66.68535407 23.13573509 1.36092559
3920 1 68.04627966 21.77480949 2.72185119
3921 1 69.40720526 25.85758627 6.80462797
3922 1 65.32442848 24.49666068 8.16555356
3923 1 69.40720526 23.13573509 9.52647915
3924 1 65.32442848 21.77480949 5.44370237
3925 1 66.68535407 25.85758627 9.52647915
3926 1 68.04627966 24.49666068 5.44370237
3927 1 66.68535407 23.13573509 6.80462797
3928 1 68.04627966 21.77480949 8.16555356
3929 1 69.40720526 25.85758627 12.24833034
3930 1 65.32442848 24.49666068 13.60925593
3931 1 69.40720526 23.13573509 14.97018153
3932 1 65.32442848 21.77480949 10.88740475
3933 1 66.68535407 25.85758627 14.97018153
3934 1 68.04627966 24.49666068 10.88740475
3935 1 66.68535407 23.13573509 12.24833034
3936 1 68.04627966 21.77480949 13.60925593
3937 1 69.40720526 31.30128864 1.36092559
3938 1 65.32442848 29.94036305 2.72185119
3939 1 69.40720526 28.57943746 4.08277678
3940 1 65.32442848 27.21851186 -1.51182158e-15
3941 1 66.68535407 31.30128864 4.08277678
3942 1 68.04627966 29.94036305 -1.81182158e-15
3943 1 66.68535407 28.57943746 1.36092559
3944 1 68.04627966 27.21851186 2.72185119
3945 1 69.40720526 31.30128864 6.80462797
3946 1 65.32442848 29.94036305 8.16555356
3947 1 69.40720526 28.57943746 9.52647915
3948 1 65.32442848 27.21851186 5.44370237
3949 1 66.68535407 31.30128864 9.52647915
3950 1 68.04627966 29.94036305 5.44370237
3951 1 66.68535407 28.57943746 6.80462797
3952 1 68.04627966 27.21851186 8.16555356
3953 1 69.40720526 31.30128864 12.24833034
3954 1 65.32442848 29.94036305 13.60925593
3955 1 69.40720526 28.57943746 14.97018153
3956 1 65.32442848 27.21851186 10.88740475
3957 1 66.68535407 31.30128864 14.97018153
3958 1 68.04627966 29.94036305 10.88740475
3959 1 66.68535407 28.57943746 12.24833034
3960 1 68.04627966 27.21851186 13.60925593
3961 1 74.85090763 20.4138839 1.36092559
3962 1 70.76813085 19.05295831 2.72185119
3963 1 74.85090763 17.69203271 4.08277678
3964 1 70.76813085 16.33110712 -1.21182158e-15
3965 1 72.12905644 20.4138839 4.08277678
3966 1 73.48998204 19.05295831 -1.51182158e-15
3967 1 72.12905644 17.69203271 1.36092559
3968 1 73.48998204 16.33110712 2.72185119
3969 1 74.85090763 20.4138839 6.80462797
3970 1 70.76813085 19.05295831 8.16555356
3971 1 74.85090763 17.69203271 9.52647915
3972 1 70.76813085 16.33110712 5.44370237
3973 1 72.12905644 20.4138839 9.52647915
3974 1 73.48998204 19.05295831 5.44370237
3975 1 72.12905644 17.69203271 6.80462797
3976 1 73.48998204 16.33110712 8.16555356
3977 1 74.85090763 20.4138839 12.24833034
3978 1 70.76813085 19.05295831 13.60925593
3979 1 74.85090763 17.69203271 14.97018153
3980 1 70.76813085 16.33110712 10.88740475
3981 1 72.12905644 20.4138839 14.97018153
3982 1 73.48998204 19.05295831 10.88740475
3983 1 72.12905644 17.69203271 12.24833034
3984 1 73.48998204 16.33110712 13.60925593
3985 1 74.85090763 25.85758627 1.36092559
3986 1 70.76813085 24.49666068 2.72185119
3987 1 74.85090763 23.13573509 4.08277678
3988 1 70.76813085 21.77480949 -1.51182158e-15
3989 1 72.12905644 25.85758627 4.08277678
3990 1 73.48998204 24.49666068 -1.81182158e-15
3991 1 72.12905644 23.13573509 1.36092559
3992 1 73.48998204 21.77480949 2.72185119
3993 1 74.85090763 25.85758627 6.80462797
3994 1 70.76813085 24.49666068 8.16555356
3995 1 74.85090763 23.13573509 9.52647915
3996 1 70.76813085 21.77480949 5.44370237
3997 1 72.12905644 25.85758627 9.52647915
3998 1 73.48998204 24.49666068 5.44370237
3999 1 72.12905644 23.13573509 6.80462797
4000 1 73.48998204 21.77480949 8.16555356
4001 1 74.85090763 25.85758627 12.24833034
4002 1 70.76813085 24.49666068 13.60925593
4003 1 74.85090763 23.13573509 14.97018153
4004 1 70.76813085 21.77480949 10.88740475
4005 1 72.12905644 25.85758627 14.97018153
4006 1 73.48998204 24.49666068 10.88740475
4007 1 72.12905644 23.13573509 12.24833034
4008 1 73.48998204 21.77480949 13.60925593
4009 1 74.85090763 31.30128864 1.36092559
4010 1 70.76813085 29.94036305 2.72185119
4011 1 74.85090763 28.57943746 4.08277678
4012 1 70.76813085 27.21851186 -1.81182158e-15
4013 1 72.12905644 31.30128864 4.08277678
4014 1 73.48998204 29.94036305 -2.11182158e-15
4015 1 72.12905644 28.57943746 1.36092559
4016 1 73.48998204 27.21851186 2.72185119
4017 1 74.85090763 31.30128864 6.80462797
4018 1 70.76813085 29.94036305 8.16555356
4019 1 74.85090763 28.57943746 9.52647915
4020 1 70.76813085 27.21851186 5.44370237
4021 1 72.12905644 31.30128864 9.52647915
4022 1 73.48998204 29.94036305 5.44370237
4023 1 72.12905644 28.57943746 6.80462797
4024 1 73.48998204 27.21851186 8.16555356
4025 1 74.85090763 31.30128864 12.24833034
4026 1 70.76813085 29.94036305 13.60925593
4027 1 74.85090763 28.57943746 14.97018153
4028 1 70.76813085 27.21851186 10.88740475
4029 1 72.12905644 31.30128864 14.97018153
4030 1 73.48998204 29.94036305 10.88740475
4031 1 72.12905644 28.57943746 12.24833034
4032 1 73.48998204 27.21851186 13.60925593
4033 1 80.29461 20.4138839 1.36092559
4034 1 76.21183322 19.05295831 2.72185119
4035 1 80.29461 17.69203271 4.08277678
4036 1 76.21183322 16.33110712 -1.51182158e-15
4037 1 77.57275882 20.4138839 4.08277678
4038 1 78.93368441 19.05295831 -1.81182158e-15
4039 1 77.57275882 17.69203271 1.36092559
4040 1 78.93368441 16.33110712 2.72185119
4041 1 80.29461 20.4138839 6.80462797
4042 1 76.21183322 19.05295831 8.16555356
4043 1 80.29461 17.69203271 9.52647915
4044 1 76.21183322 16.33110712 5.44370237
4045 1 77.57275882 20.4138839 9.52647915
4046 1 78.93368441 19.05295831 5.44370237
4047 1 77.57275882 17.69203271 6.80462797
4048 1 78.93368441 16.33110712 8.16555356
4049 1 80.29461 20.4138839 12.24833034
4050 1 76.21183322 19.05295831 13.60925593
4051 1 80.29461 17.69203271 14.97018153
4052 1 76.21183322 16.33110712 10.88740475
4053 1 77.57275882 20.4138839 14.97018153
4054 1 78.93368441 19.05295831 10.88740475
4055 1 77.57275882 17.69203271 12.24833034
4056 1 78.93368441 16.33110712 13.60925593
4057 1 80.29461 25.85758627 1.36092559
4058 1 76.21183322 24.49666068 2.72185119
4059 1 80.29461 23.13573509 4.08277678
4060 1 76.21183322 21.77480949 -1.81182158e-15
4061 1 77.57275882 25.85758627 4.08277678
4062 1 78.93368441 24.49666068 -2.11182158e-15
4063 1 77.57275882 23.13573509 1.36092559
4064 1 78.93368441 21.77480949 2.72185119
4065 1 80.29461 25.85758627 6.80462797
4066 1 76.21183322 24.49666068 8.16555356
4067 1 80.29461 23.13573509 9.52647915
4068 1 76.21183322 21.77480949 5.44370237
4069 1 77.57275882 25.85758627 9.52647915
4070 1 78.93368441 24.49666068 5.44370237
4071 1 77.57275882 23.13573509 6.80462797
4072 1 78.93368441 21.77480949 8.16555356
4073 1 80.29461 25.85758627 12.24833034
4074 1 76.21183322 24.49666068 13.60925593
4075 1 80.29461 23.13573509 14.97018153
4076 1 76.21183322 21.77480949 10.88740475
4077 1 77.57275882 25.85758627 14.97018153
4078 1 78.93368441 24.49666068 10.88740475
4079 1 77.57275882 23.13573509 12.24833034
4080 1 78.93368441 21.77480949 13.60925593
4081 1 80.29461 31.30128864 1.36092559
4082 1 76.21183322 29.94036305 2.72185119
4083 1 80.29461 28.57943746 4.08277678
4084 1 76.21183322 27.21851186 -1.22364316e-15
4085 1 77.57275882 31.30128864 4.08277678
4086 1 78.93368441 29.94036305 -1.52364316e-15
4087 1 77.57275882 28.57943746 1.36092559
4088 1 78.93368441 27.21851186 2.72185119
4089 1 80.29461 31.30128864 6.80462797
4090 1 76.21183322 29.94036305 8.16555356
4091 1 80.29461 28.57943746 9.52647915
4092 1 76.21183322 27.21851186 5.44370237
4093 1 77.57275882 31.30128864 9.52647915
4094 1 78.93368441 29.94036305 5.44370237
4095 1 77.57275882 28.57943746 6.80462797
4096 1 78.93368441 27.21851186 8.16555356
4097 1 80.29461 31.30128864 12.24833034
4098 1 76.21183322 29.94036305 13.60925593
4099 1 80.29461 28.57943746 14.97018153
4100 1 76.21183322 27.21851186 10.88740475
4101 1 77.57275882 31.30128864 14.97018153
4102 1 78.93368441 29.94036305 10.88740475
4103 1 77.57275882 28.57943746 12.24833034
4104 1 78.93368441 27.21851186 13.60925593
4105 1 69.40720526 20.4138839 17.69203271
4106 1 65.32442848 19.05295831 19.05295831
4107 1 69.40720526 17.69203271 20.4138839
4108 1 65.32442848 16.33110712 16.33110712
4109 1 66.68535407 20.4138839 20.4138839
4110 1 68.04627966 19.05295831 16.33110712
4111 1 66.68535407 17.69203271 17.69203271
4112 1 68.04627966 16.33110712 19.05295831
4113 1 69.40720526 20.4138839 23.13573508
4114 1 65.32442848 19.05295831 24.49666068
4115 1 69.40720526 17.69203271 25.85758627
4116 1 65.32442848 16.33110712 21.77480949
4117 1 66.68535407 20.4138839 25.85758627
4118 1 68.04627966 19.05295831 21.77480949
4119 1 66.68535407 17.69203271 23.13573508
4120 1 68.04627966 16.33110712 24.49666068
4121 1 69.40720526 20.4138839 28.57943746
4122 1 65.32442848 19.05295831 29.94036305
4123 1 69.40720526 17.69203271 31.30128864
4124 1 65.32442848 16.33110712 27.21851186
4125 1 66.68535407 20.4138839 31.30128864
4126 1 68.04627966 19.05295831 27.21851186
4127 1 66.68535407 17.69203271 28.57943746
4128 1 68.04627966 16.33110712 29.94036305
4129 1 69.40720526 25.85758627 17.69203271
4130 1 65.32442848 24.49666068 19.05295831
4131 1 69.40720526 23.13573509 20.4138839
4132 1 65.32442848 21.77480949 16.33110712
4133 1 66.68535407 25.85758627 20.4138839
4134 1 68.04627966 24.49666068 16.33110712
4135 1 66.68535407 23.13573509 17.69203271
4136 1 68.04627966 21.77480949 19.05295831
4137 1 69.40720526 25.85758627 23.13573508
4138 1 65.32442848 24.49666068 24.49666068
4139 1 69.40720526 23.13573509 25.85758627
4140 1 65.32442848 21.77480949 21.77480949
4141 1 66.68535407 25.85758627 25.85758627
4142 1 68.04627966 24.49666068 21.77480949
4143 1 66.68535407 23.13573509 23.13573508
4144 1 68.04627966 21.77480949 24.49666068
4145 1 69.40720526 25.85758627 28.57943746
4146 1 65.32442848 24.49666068 29.94036305
4147 1 69.40720526 23.13573509 31.30128864
4148 1 65.32442848 21.77480949 27.21851186
4149 1 66.68535407 25.85758627 31.30128864
4150 1 68.04627966 24.49666068 27.21851186
4151 1 66.68535407 23.13573509 28.57943746
4152 1 68.04627966 21.77480949 29.94036305
4153 1 69.40720526 31.30128864 17.69203271
4154 1 65.32442848 29.94036305 19.05295831
4155 1 69.40720526 28.57943746 20.4138839
4156 1 65.32442848 27.21851186 16.33110712
4157 1 66.68535407 31.30128864 20.4138839
4158 1 68.04627966 29.94036305 16.33110712
4159 1 66.68535407 28.57943746 17.69203271
4160 1 68.04627966 27.21851186 19.05295831
4161 1 69.40720526 31.30128864 23.13573508
4162 1 65.32442848 29.94036305 24.49666068
4163 1 69.40720526 28.57943746 25.85758627
4164 1 65.32442848 27.21851186 21.77480949
4165 1 66.68535407 31.30128864 25.85758627
4166 1 68.04627966 29.94036305 21.77480949
4167 1 66.68535407 28.57943746 23.13573508
4168 1 68.04627966 27.21851186 24.49666068
4169 1 69.40720526 31.30128864 28.57943746
4170 1 65.32442848 29.94036305 29.94036305
4171 1 69.40720526 28.57943746 31.30128864
4172 1 65.32442848 27.21851186 27.21851186
4173 1 66.68535407 31.30128864 31.30128864
4174 1 68.04627966 29.94036305 27.21851186
4175 1 66.68535407 28.57943746 28.57943746
4176 1 68.04627966 27.21851186 29.94036305
4177 1 74.85090763 20.4138839 17.69203271
4178 1 70.76813085 19.05295831 19.05295831
4179 1 74.85090763 17.69203271 20.4138839
4180 1 70.76813085 16.33110712 16.33110712
4181 1 72.12905644 20.4138839 20.4138839
4182 1 73.48998204 19.05295831 16.33110712
4183 1 72.12905644 17.69203271 17.69203271
4184 1 73.48998204 16.33110712 19.05295831
4185 1 74.85090763 20.4138839 23.13573508
4186 1 70.76813085 19.05295831 24.49666068
4187 1 74.85090763 17.69203271 25.85758627
4188 1 70.76813085 16.33110712 21.77480949
4189 1 72.12905644 20.4138839 25.85758627
4190 1 73.48998204 19.05295831 21.77480949
4191 1 72.12905644 17.69203271 23.13573508
4192 1 73.48998204 16.33110712 24.49666068
4193 1 74.85090763 20.4138839 28.57943746
4194 1 70.76813085 19.05295831 29.94036305
4195 1 74.85090763 17.69203271 31.30128864
4196 1 70.76813085 16.33110712 27.21851186
4197 1 72.12905644 20.4138839 31.30128864
4198 1 73.48998204 19.05295831 27.21851186
4199 1 72.12905644 17.69203271 28.57943746
4200 1 73.48998204 16.33110712 29.94036305
4201 1 74.85090763 25.85758627 17.69203271
4202 1 70.76813085 24.49666068 19.05295831
4203 1 74.85090763 23.13573509 20.4138839
4204 1 70.76813085 21.77480949 16.33110712
4205 1 72.12905644 25.85758627 20.4138839
4206 1 73.48998204 24.49666068 16.33110712
4207 1 72.12905644 23.13573509 17.69203271
4208 1 73.48998204 21.77480949 19.05295831
4209 1 74.85090763 25.85758627 23.13573508
4210 1 70.76813085 24.49666068 24.49666068
4211 1 74.85090763 23.13573509 25.85758627
4212 1 70.76813085 21.77480949 21.77480949
4213 1 72.12905644 25.85758627 25.85758627
4214 1 73.48998204 24.49666068 21.77480949
4215 1 72.12905644 23.13573509 23.13573508
4216 1 73.48998204 21.77480949 24.49666068
4217 1 74.85090763 25.85758627 28.57943746
4218 1 70.76813085 24.49666068 29.94036305
4219 1 74.85090763 23.13573509 31.30128864
4220 1 70.76813085 21.77480949 27.21851186
4221 1 72.12905644 25.85758627 31.30128864
4222 1 73.48998204 24.49666068 27.21851186
4223 1 72.12905644 23.13573509 28.57943746
4224 1 73.48998204 21.77480949 29.94036305
4225 1 74.85090763 31.30128864 17.69203271
4226 1 70.76813085 29.94036305 19.05295831
4227 1 74.85090763 28.57943746 20.4138839
4228 1 70.76813085 27.21851186 16.33110712
4229 1 72.12905644 31.30128864 20.4138839
4230 1 73.48998204 29.94036305 16.33110712
4231 1 72.12905644 28.57943746 17.69203271
4232 1 73.48998204 27.21851186 19.05295831
4233 1 74.85090763 31.30128864 23.13573508
4234 1 70.76813085 29.94036305 24.49666068
4235 1 74.85090763 28.57943746 25.85758627
4236 1 70.76813085 27.21851186 21.77480949
4237 1 72.12905644 31.30128864 25.85758627
4238 1 73.48998204 29.94036305 21.77480949
4239 1 72.12905644 28.57943746 23.13573508
4240 1 73.48998204 27.21851186 24.49666068
4241 1 74.85090763 31.30128864 28.57943746
4242 1 70.76813085 29.94036305 29.94036305
4243 1 74.85090763 28.57943746 31.30128864
4244 1 70.76813085 27.21851186 27.21851186
4245 1 72.12905644 31.30128864 31.30128864
4246 1 73.48998204 29.94036305 27.21851186
4247 1 72.12905644 28.57943746 28.57943746
4248 1 73.48998204 27.21851186 29.94036305
4249 1 80.29461 20.4138839 17.69203271
4250 1 76.21183322 19.05295831 19.05295831
4251 1 80.29461 17.69203271 20.4138839
4252 1 76.21183322 16.33110712 16.33110712
4253 1 77.57275882 20.4138839 20.4138839
4254 1 78.93368441 19.05295831 16.33110712
4255 1 77.57275882 17.69203271 17.69203271
4256 1 78.93368441 16.33110712 19.05295831
4257 1 80.29461 20.4138839 23.13573508
4258 1 76.21183322 19.05295831 24.49666068
4259 1 80.29461 17.69203271 25.85758627
4260 1 76.21183322 16.33110712 21.77480949
4261 1 77.57275882 20.4138839 25.85758627
4262 1 78.93368441 19.05295831 21.77480949
4263 1 77.57275882 17.69203271 23.13573508
4264 1 78.93368441 16.33110712 24.49666068
4265 1 80.29461 20.4138839 28.57943746
4266 1 76.21183322 19.05295831 29.94036305
4267 1 80.29461 17.69203271 31.30128864
4268 1 76.21183322 16.33110712 27.21851186
4269 1 77.57275882 20.4138839 31.30128864
4270 1 78.93368441 19.05295831 27.21851186
4271 1 77.57275882 17.69203271 28.57943746
4272 1 78.93368441 16.33110712 29.94036305
4273 1 80.29461 25.85758627 17.69203271
4274 1 76.21183322 24.49666068 19.05295831
4275 1 80.29461 23.13573509 20.4138839
4276 1 76.21183322 21.77480949 16.33110712
4277 1 77.57275882 25.85758627 20.4138839
4278 1 78.93368441 24.49666068 16.33110712
4279 1 77.57275882 23.13573509 17.69203271
4280 1 78.93368441 21.77480949 19.05295831
4281 1 80.29461 25.85758627 23.13573508
4282 1 76.21183322 24.49666068 24.49666068
4283 1 80.29461 23.13573509 25.85758627
4284 1 76.21183322 21.77480949 21.77480949
4285 1 77.57275882 25.85758627 25.85758627
4286 1 78.93368441 24.49666068 21.77480949
4287 1 77.57275882 23.13573509 23.13573508
4288 1 78.93368441 21.77480949 24.49666068
4289 1 80.29461 25.85758627 28.57943746
4290 1 76.21183322 24.49666068 29.94036305
4291 1 80.29461 23.13573509 31.30128864
4292 1 76.21183322 21.77480949 27.21851186
4293 1 77.57275882 25.85758627 31.30128864
4294 1 78.93368441 24.49666068 27.21851186
4295 1 77.57275882 23.13573509 28.57943746
4296 1 78.93368441 21.77480949 29.94036305
4297 1 80.29461 31.30128864 17.69203271
4298 1 76.21183322 29.94036305 19.05295831
4299 1 80.29461 28.57943746 20.4138839
4300 1 76.21183322 27.21851186 16.33110712
4301 1 77.57275882 31.30128864 20.4138839
4302 1 78.93368441 29.94036305 16.33110712
4303 1 77.57275882 28.57943746 17.69203271
4304 1 78.93368441 27.21851186 19.05295831
4305 1 80.29461 31.30128864 23.13573508
4306 1 76.21183322 29.94036305 24.49666068
4307 1 80.29461 28.57943746 25.85758627
4308 1 76.21183322 27.21851186 21.77480949
4309 1 77.57275882 31.30128864 25.85758627
4310 1 78.93368441 29.94036305 21.77480949
4311 1 77.57275882 28.57943746 23.13573508
4312 1 78.93368441 27.21851186 24.49666068
4313 1 80.29461 31.30128864 28.57943746
4314 1 76.21183322 29.94036305 29.94036305
4315 1 80.29461 28.57943746 31.30128864
4316 1 76.21183322 27.21851186 27.21851186
4317 1 77.57275882 31.30128864 31.30128864
4318 1 78.93368441 29.94036305 27.21851186
4319 1 77.57275882 28.57943746 28.57943746
4320 1 78.93368441 27.21851186 29.94036305
4321 1 85.73831238 4.08277678 1.36092559
4322 1 81.6555356 2.72185119 2.72185119
4323 1 85.73831238 1.36092559 4.08277678
4324 1 81.6555356 -6.56858655e-47 -1.8e-15
4325 1 83.01646119 4.08277678 4.08277678
4326 1 84.37738678 2.72185119 -2.1e-15
4327 1 83.01646119 1.36092559 1.36092559
4328 1 84.37738678 1.5e-16 2.72185119
4329 1 85.73831238 4.08277678 6.80462797
4330 1 81.6555356 2.72185119 8.16555356
4331 1 85.73831238 1.36092559 9.52647915
4332 1 81.6555356 3.0e-16 5.44370237
4333 1 83.01646119 4.08277678 9.52647915
4334 1 84.37738678 2.72185119 5.44370237
4335 1 83.01646119 1.36092559 6.80462797
4336 1 84.37738678 4.5e-16 8.16555356
4337 1 85.73831238 4.08277678 12.24833034
4338 1 81.6555356 2.72185119 13.60925593
4339 1 85.73831238 1.36092559 14.97018153
4340 1 81.6555356 6.0e-16 10.88740475
4341 1 83.01646119 4.08277678 14.97018153
4342 1 84.37738678 2.72185119 10.88740475
4343 1 83.01646119 1.36092559 12.24833034
4344 1 84.37738678 7.5e-16 13.60925593
4345 1 85.73831238 9.52647915 1.36092559
4346 1 81.6555356 8.16555356 2.72185119
4347 1 85.73831238 6.80462797 4.08277678
4348 1 81.6555356 5.44370237 -1.21182158e-15
4349 1 83.01646119 9.52647915 4.08277678
4350 1 84.37738678 8.16555356 -1.51182158e-15
4351 1 83.01646119 6.80462797 1.36092559
4352 1 84.37738678 5.44370237 2.72185119
4353 1 85.73831238 9.52647915 6.80462797
4354 1 81.6555356 8.16555356 8.16555356
4355 1 85.73831238 6.80462797 9.52647915
4356 1 81.6555356 5.44370237 5.44370237
4357 1 83.01646119 9.52647915 9.52647915
4358 1 84.37738678 8.16555356 5.44370237
4359 1 83.01646119 6.80462797 6.80462797
4360 1 84.37738678 5.44370237 8.16555356
4361 1 85.73831238 9.52647915 12.24833034
4362 1 81.6555356 8.16555356 13.60925593
4363 1 85.73831238 6.80462797 14.97018153
4364 1 81.6555356 5.44370237 10.88740475
4365 1 83.01646119 9.52647915 14.97018153
4366 1 84.37738678 8.16555356 10.88740475
4367 1 83.01646119 6.80462797 12.24833034
4368 1 84.37738678 5.44370237 13.60925593
4369 1 85.73831238 14.97018153 1.36092559
4370 1 81.6555356 13.60925593 2.72185119
4371 1 85.73831238 12.24833034 4.08277678
4372 1 81.6555356 10.88740475 -1.51182158e-15
4373 1 83.01646119 14.97018153 4.08277678
4374 1 84.37738678 13.60925593 -1.81182158e-15
4375 1 83.01646119 12.24833034 1.36092559
4376 1 84.37738678 10.88740475 2.72185119
4377 1 85.73831238 14.97018153 6.80462797
4378 1 81.6555356 13.60925593 8.16555356
4379 1 85.73831238 12.24833034 9.52647915
4380 1 81.6555356 10.88740475 5.44370237
4381 1 83.01646119 14.97018153 9.52647915
4382 1 84.37738678 13.60925593 5.44370237
4383 1 83.01646119 12.24833034 6.80462797
4384 1 84.37738678 10.88740475 8.16555356
4385 1 85.73831238 14.97018153 12.24833034
4386 1 81.6555356 13.60925593 13.60925593
4387 1 85.73831238 12.24833034 14.97018153
4388 1 81.6555356 10.88740475 10.88740475
4389 1 83.01646119 14.97018153 14.97018153
4390 1 84.37738678 13.60925593 10.88740475
4391 1 83.01646119 12.24833034 12.24833034
4392 1 84.37738678 10.88740475 13.60925593
4393 1 91.18201475 4.08277678 1.36092559
4394 1 87.09923797 2.72185119 2.72185119
4395 1 91.18201475 1.36092559 4.08277678
4396 1 87.09923797 3.24142493e-32 -1.21182158e-15
4397 1 88.46016356 4.08277678 4.08277678
4398 1 89.82108916 2.72185119 -1.51182158e-15
4399 1 88.46016356 1.36092559 1.36092559
4400 1 89.82108916 1.5e-16 2.72185119
4401 1 91.18201475 4.08277678 6.80462797
4402 1 87.09923797 2.72185119 8.16555356
4403 1 91.18201475 1.36092559 9.52647915
4404 1 87.09923797 3.0e-16 5.44370237
4405 1 88.46016356 4.08277678 9.52647915
4406 1 89.82108916 2.72185119 5.44370237
4407 1 88.46016356 1.36092559 6.80462797
4408 1 89.82108916 4.5e-16 8.16555356
4409 1 91.18201475 4.08277678 12.24833034
4410 1 87.09923797 2.72185119 13.60925593
4411 1 91.18201475 1.36092559 14.97018153
4412 1 87.09923797 6.0e-16 10.88740475
4413 1 88.46016356 4.08277678 14.97018153
4414 1 89.82108916 2.72185119 10.88740475
4415 1 88.46016356 1.36092559 12.24833034
4416 1 89.82108916 7.5e-16 13.60925593
4417 1 91.18201475 9.52647915 1.36092559
4418 1 87.09923797 8.16555356 2.72185119
4419 1 91.18201475 6.80462797 4.08277678
4420 1 87.09923797 5.44370237 -1.51182158e-15
4421 1 88.46016356 9.52647915 4.08277678
4422 1 89.82108916 8.16555356 -1.81182158e-15
4423 1 88.46016356 6.80462797 1.36092559
4424 1 89.82108916 5.44370237 2.72185119
4425 1 91.18201475 9.52647915 6.80462797
4426 1 87.09923797 8.16555356 8.16555356
4427 1 91.18201475 6.80462797 9.52647915
4428 1 87.09923797 5.44370237 5.44370237
4429 1 88.46016356 9.52647915 9.52647915
4430 1 89.82108916 8.16555356 5.44370237
4431 1 88.46016356 6.80462797 6.80462797
4432 1 89.82108916 5.44370237 8.16555356
4433 1 91.18201475 9.52647915 12.24833034
4434 1 87.09923797 8.16555356 13.60925593
4435 1 91.18201475 6.80462797 14.97018153
4436 1 87.09923797 5.44370237 10.88740475
4437 1 88.46016356 9.52647915 14.97018153
4438 1 89.82108916 8.16555356 10.88740475
4439 1 88.46016356 6.80462797 12.24833034
4440 1 89.82108916 5.44370237 13.60925593
4441 1 91.18201475 14.97018153 1.36092559
4442 1 87.09923797 13.60925593 2.72185119
4443 1 91.18201475 12.24833034 4.08277678
4444 1 87.09923797 10.88740475 -1.81182158e-15
4445 1 88.46016356 14.97018153 4.08277678
4446 1 89.82108916 13.60925593 -2.11182158e-15
4447 1 88.46016356 12.24833034 1.36092559
4448 1 89.82108916 10.88740475 2.72185119
4449 1 91.18201475 14.97018153 6.80462797
4450 1 87.09923797 13.60925593 8.16555356
4451 1 91.18201475 12.24833034 9.52647915
4452 1 87.09923797 10.88740475 5.44370237
4453 1 88.46016356 14.97018153 9.52647915
4454 1 89.82108916 13.60925593 5.44370237
4455 1 88.46016356 12.24833034 6.80462797
4456 1 89.82108916 10.88740475 8.16555356
4457 1 91.18201475 14.97018153 12.24833034
4458 1 87.09923797 13.60925593 13.60925593
4459 1 91.18201475 12.24833034 14.97018153
4460 1 87.09923797 10.88740475 10.88740475
4461 1 88.46016356 14.97018153 14.97018153
4462 1 89.82108916 13.60925593 10.88740475
4463 1 88.46016356 12.24833034 12.24833034
4464 1 89.82108916 10.88740475 13.60925593
4465 1 96.62571712 4.08277678 1.36092559
4466 1 92.54294034 2.72185119 2.72185119
4467 1 96.62571712 1.36092559 4.08277678
4468 1 92.54294034 1.58813837e-32 -1.51182158e-15
4469 1 93.90386594 4.08277678 4.08277678
4470 1 95.26479153 2.72185119 -1.81182158e-15
4471 1 93.90386594 1.36092559 1.36092559
4472 1 95.26479153 1.5e-16 2.72185119
4473 1 96.62571712 4.08277678 6.80462797
4474 1 92.54294034 2.72185119 8.16555356
4475 1 96.62571712 1.36092559 9.52647915
4476 1 92.54294034 3.0e-16 5.44370237
4477 1 93.90386594 4.08277678 9.52647915
4478 1 95.26479153 2.72185119 5.44370237
4479 1 93.90386594 1.36092559 6.80462797
4480 1 95.26479153 4.5e-16 8.16555356
4481 1 96.62571712 4.08277678 12.24833034
4482 1 92.54294034 2.72185119 13.60925593
4483 1 96.62571712 1.36092559 14.97018153
4484 1 92.54294034 6.0e-16 10.88740475
4485 1 93.90386594 4.08277678 14.97018153
4486 1 95.26479153 2.72185119 10.88740475
4487 1 93.90386594 1.36092559 12.24833034
4488 1 95.26479153 7.5e-16 13.60925593
4489 1 96.62571712 9.52647915 1.36092559
4490 1 92.54294034 8.16555356 2.72185119
4491 1 96.62571712 6.80462797 4.08277678
4492 1 92.54294034 5.44370237 -1.81182158e-15
4493 1 93.90386594 9.52647915 4.08277678
4494 1 95.26479153 8.16555356 -2.11182158e-15
4495 1 93.90386594 6.80462797 1.36092559
4496 1 95.26479153 5.44370237 2.72185119
4497 1 96.62571712 9.52647915 6.80462797
4498 1 92.54294034 8.16555356 8.16555356
4499 1 96.62571712 6.80462797 9.52647915
4500 1 92.54294034 5.44370237 5.44370237
4501 1 93.90386594 9.52647915 9.52647915
4502 1 95.26479153 8.16555356 5.44370237
4503 1 93.90386594 6.80462797 6.80462797
4504 1 95.26479153 5.44370237 8.16555356
4505 1 96.62571712 9.52647915 12.24833034
4506 1 92.54294034 8.16555356 13.60925593
4507 1 96.62571712 6.80462797 14.97018153
4508 1 92.54294034 5.44370237 10.88740475
4509 1 93.90386594 9.52647915 14.97018153
4510 1 95.26479153 8.16555356 10.88740475
4511 1 93.90386594 6.80462797 12.24833034
4512 1 95.26479153 5.44370237 13.60925593
4513 1 96.62571712 14.97018153 1.36092559
4514 1 92.54294034 13.60925593 2.72185119
4515 1 96.62571712 12.24833034 4.08277678
4516 1 92.54294034 10.88740475 -1.22364316e-15
4517 1 93.90386594 14.97018153 4.08277678
4518 1 95.26479153 13.60925593 -1.52364316e-15
4519 1 93.90386594 12.24833034 1.36092559
4520 1 95.26479153 10.88740475 2.72185119
4521 1 96.62571712 14.97018153 6.80462797
4522 1 92.54294034 13.60925593 8.16555356
4523 1 96.62571712 12.24833034 9.52647915
4524 1 92.54294034 10.88740475 5.44370237
4525 1 93.90386594 14.97018153 9.52647915
4526 1 95.26479153 13.60925593 5.44370237
4527 1 93.90386594 12.24833034 6.80462797
4528 1 95.26479153 10.88740475 8.16555356
4529 1 96.62571712 14.97018153 12.24833034
4530 1 92.54294034 13.60925593 13.60925593
4531 1 96.62571712 12.24833034 14.97018153
4532 1 92.54294034 10.88740475 10.88740475
4533 1 93.90386594 14.97018153 14.97018153
4534 1 95.26479153 13.60925593 10.88740475
4535 1 93.90386594 12.24833034 12.24833034
4536 1 95.26479153 10.88740475 13.60925593
4537 1 85.73831238 4.08277678 17.69203271
4538 1 81.6555356 2.72185119 19.05295831
4539 1 85.73831238 1.36092559 20.4138839
4540 1 81.6555356 9.0e-16 16.33110712
4541 1 83.01646119 4.08277678 20.4138839
4542 1 84.37738678 2.72185119 16.33110712
4543 1 83.01646119 1.36092559 17.69203271
4544 1 84.37738678 1.05e-15 19.05295831
4545 1 85.73831238 4.08277678 23.13573508
4546 1 81.6555356 2.72185119 24.49666068
4547 1 85.73831238 1.36092559 25.85758627
4548 1 81.6555356 1.2e-15 21.77480949
4549 1 83.01646119 4.08277678 25.85758627
4550 1 84.37738678 2.72185119 21.77480949
4551 1 83.01646119 1.36092559 23.13573508
4552 1 84.37738678 1.35e-15 24.49666068
4553 1 85.73831238 4.08277678 28.57943746
4554 1 81.6555356 2.72185119 29.94036305
4555 1 85.73831238 1.36092559 31.30128864
4556 1 81.6555356 1.5e-15 27.21851186
4557 1 83.01646119 4.08277678 31.30128864
4558 1 84.37738678 2.72185119 27.21851186
4559 1 83.01646119 1.36092559 28.57943746
4560 1 84.37738678 1.65e-15 29.94036305
4561 1 85.73831238 9.52647915 17.69203271
4562 1 81.6555356 8.16555356 19.05295831
4563 1 85.73831238 6.80462797 20.4138839
4564 1 81.6555356 5.44370237 16.33110712
4565 1 83.01646119 9.52647915 20.4138839
4566 1 84.37738678 8.16555356 16.33110712
4567 1 83.01646119 6.80462797 17.69203271
4568 1 84.37738678 5.44370237 19.05295831
4569 1 85.73831238 9.52647915 23.13573508
4570 1 81.6555356 8.16555356 24.49666068
4571 1 85.73831238 6.80462797 25.85758627
4572 1 81.6555356 5.44370237 21.77480949
4573 1 83.01646119 9.52647915 25.85758627
4574 1 84.37738678 8.16555356 21.77480949
4575 1 83.01646119 6.80462797 23.13573508
4576 1 84.37738678 5.44370237 24.49666068
4577 1 85.73831238 9.52647915 28.57943746
4578 1 81.6555356 8.16555356 29.94036305
4579 1 85.73831238 6.80462797 31.30128864
4580 1 81.6555356 5.44370237 27.21851186
4581 1 83.01646119 9.52647915 31.30128864
4582 1 84.37738678 8.16555356 27.21851186
4583 1 83.01646119 6.80462797 28.57943746
4584 1 84.37738678 5.44370237 29.94036305
4585 1 85.73831238 14.97018153 17.69203271
4586 1 81.6555356 13.60925593 19.05295831
4587 1 85.73831238 12.24833034 20.4138839
4588 1 81.6555356 10.88740475 16.33110712
4589 1 83.01646119 14.97018153 20.4138839
4590 1 84.37738678 13.60925593 16.33110712
4591 1 83.01646119 12.24833034 17.69203271
4592 1 84.37738678 10.88740475 19.05295831
4593 1 85.73831238 14.97018153 23.13573508
4594 1 81.6555356 13.60925593 24.49666068
4595 1 85.73831238 12.24833034 25.85758627
4596 1 81.6555356 10.88740475 21.77480949
4597 1 83.01646119 14.97018153 25.85758627
4598 1 84.37738678 13.60925593 21.77480949
4599 1 83.01646119 12.24833034 23.13573508
4600 1 84.37738678 10.88740475 24.49666068
4601 1 85.73831238 14.97018153 28.57943746
4602 1 81.6555356 13.60925593 29.94036305
4603 1 85.73831238 12.24833034 31.30128864
4604 1 81.6555356 10.88740475 27.21851186
4605 1 83.01646119 14.97018153 31.30128864
4606 1 84.37738678 13.60925593 27.21851186
4607 1 83.01646119 12.24833034 28.57943746
4608 1 84.37738678 10.88740475 29.94036305
4609 1 91.18201475 4.08277678 17.69203271
4610 1 87.09923797 2.72185119 19.05295831
4611 1 91.18201475 1.36092559 20.4138839
4612 1 87.09923797 9.0e-16 16.33110712
4613 1 88.46016356 4.08277678 20.4138839
4614 1 89.82108916 2.72185119 16.33110712
4615 1 88.46016356 1.36092559 17.69203271
4616 1 89.82108916 1.05e-15 19.05295831
4617 1 91.18201475 4.08277678 23.13573508
4618 1 87.09923797 2.72185119 24.49666068
4619 1 91.18201475 1.36092559 25.85758627
4620 1 87.09923797 1.2e-15 21.77480949
4621 1 88.46016356 4.08277678 25.85758627
4622 1 89.82108916 2.72185119 21.77480949
4623 1 88.46016356 1.36092559 23.13573508
4624 1 89.82108916 1.35e-15 24.49666068
4625 1 91.18201475 4.08277678 28.57943746
4626 1 87.09923797 2.72185119 29.94036305
4627 1 91.18201475 1.36092559 31.30128864
4628 1 87.09923797 1.5e-15 27.21851186
4629 1 88.46016356 4.08277678 31.30128864
4630 1 89.82108916 2.72185119 27.21851186
4631 1 88.46016356 1.36092559 28.57943746
4632 1 89.82108916 1.65e-15 29.94036305
4633 1 91.18201475 9.52647915 17.69203271
4634 1 87.09923797 8.16555356 19.05295831
4635 1 91.18201475 6.80462797 20.4138839
4636 1 87.09923797 5.44370237 16.33110712
4637 1 88.46016356 9.52647915 20.4138839
4638 1 89.82108916 8.16555356 16.33110712
4639 1 88.46016356 6.80462797 17.69203271
4640 1 89.82108916 5.44370237 19.05295831
4641 1 91.18201475 9.52647915 23.13573508
4642 1 87.09923797 8.16555356 24.49666068
4643 1 91.18201475 6.80462797 25.85758627
4644 1 87.09923797 5.44370237 21.77480949
4645 1 88.46016356 9.52647915 25.85758627
4646 1 89.82108916 8.16555356 21.77480949
4647 1 88.46016356 6.80462797 23.13573508
4648 1 89.82108916 5.44370237 24.49666068
4649 1 91.18201475 9.52647915 28.57943746
4650 1 87.09923797 8.16555356 29.94036305
4651 1 91.18201475 6.80462797 31.30128864
4652 1 87.09923797 5.44370237 27.21851186
4653 1 88.46016356 9.52647915 31.30128864
4654 1 89.82108916 8.16555356 27.21851186
4655 1 88.46016356 6.80462797 28.57943746
4656 1 89.82108916 5.44370237 29.94036305
4657 1 91.18201475 14.97018153 17.69203271
4658 1 87.09923797 13.60925593 19.05295831
4659 1 91.18201475 12.24833034 20.4138839
4660 1 87.09923797 10.88740475 16.33110712
4661 1 88.46016356 14.97018153 20.4138839
4662 1 89.82108916 13.60925593 16.33110712
4663 1 88.46016356 12.24833034 17.69203271
4664 1 89.82108916 10.88740475 19.05295831
4665 1 91.18201475 14.97018153 23.13573508
4666 1 87.09923797 13.60925593 24.49666068
4667 1 91.18201475 12.24833034 25.85758627
4668 1 87.09923797 10.88740475 21.77480949
4669 1 88.46016356 14.97018153 25.85758627
4670 1 89.82108916 13.60925593 21.77480949
4671 1 88.46016356 12.24833034 23.13573508
4672 1 89.82108916 10.88740475 24.49666068
4673 1 91.18201475 14.97018153 28.57943746
4674 1 87.09923797 13.60925593 29.94036305
4675 1 91.18201475 12.24833034 31.30128864
4676 1 87.09923797 10.88740475 27.21851186
4677 1 88.46016356 14.97018153 31.30128864
4678 1 89.82108916 13.60925593 27.21851186
4679 1 88.46016356 12.24833034 28.57943746
4680 1 89.82108916 10.88740475 29.94036305
4681 1 96.62571712 4.08277678 17.69203271
4682 1 92.54294034 2.72185119 19.05295831
4683 1 96.62571712 1.36092559 20.4138839
4684 1 92.54294034 9.0e-16 16.33110712
4685 1 93.90386594 4.08277678 20.4138839
4686 1 95.26479153 2.72185119 16.33110712
4687 1 93.90386594 1.36092559 17.69203271
4688 1 95.26479153 1.05e-15 19.05295831
4689 1 96.62571712 4.08277678 23.13573508
4690 1 92.54294034 2.72185119 24.49666068
4691 1 96.62571712 1.36092559 25.85758627
4692 1 92.54294034 1.2e-15 21.77480949
4693 1 93.90386594 4.08277678 25.85758627
4694 1 95.26479153 2.72185119 21.77480949
4695 1 93.90386594 1.36092559 23.13573508
4696 1 95.26479153 1.35e-15 24.49666068
4697 1 96.62571712 4.08277678 28.57943746
4698 1 92.54294034 2.72185119 29.94036305
4699 1 96.62571712 1.36092559 31.30128864
4700 1 92.54294034 1.5e-15 27.21851186
4701 1 93.90386594 4.08277678 31.30128864
4702 1 95.26479153 2.72185119 27.21851186
4703 1 93.90386594 1.36092559 28.57943746
4704 1 95.26479153 1.65e-15 29.94036305
4705 1 96.62571712 9.52647915 17.69203271
4706 1 92.54294034 8.16555356 19.05295831
4707 1 96.62571712 6.80462797 20.4138839
4708 1 92.54294034 5.44370237 16.33110712
4709 1 93.90386594 9.52647915 20.4138839
4710 1 95.26479153 8.16555356 16.33110712
4711 1 93.90386594 6.80462797 17.69203271
4712 1 95.26479153 5.44370237 19.05295831
4713 1 96.62571712 9.52647915 23.13573508
4714 1 92.54294034 8.16555356 24.49666068
4715 1 96.62571712 6.80462797 25.85758627
4716 1 92.54294034 5.44370237 21.77480949
4717 1 93.90386594 9.52647915 25.85758627
4718 1 95.26479153 8.16555356 21.77480949
4719 1 93.90386594 6.80462797 23.13573508
4720 1 95.26479153 5.44370237 24.49666068
4721 1 96.62571712 9.52647915 28.57943746
4722 1 92.54294034 8.16555356 29.94036305
4723 1 96.62571712 6.80462797 31.30128864
4724 1 92.54294034 5.44370237 27.21851186
4725 1 93.90386594 9.52647915 31.30128864
4726 1 95.26479153 8.16555356 27.21851186
4727 1 93.90386594 6.80462797 28.57943746
4728 1 95.26479153 5.44370237 29.94036305
4729 1 96.62571712 14.97018153 17.69203271
4730 1 92.54294034 13.60925593 19.05295831
4731 1 96.62571712 12.24833034 20.4138839
4732 1 92.54294034 10.88740475 16.33110712
4733 1 93.90386594 14.97018153 20.4138839
4734 1 95.26479153 13.60925593 16.33110712
4735 1 93.90386594 12.24833034 17.69203271
4736 1 95.26479153 10.88740475 19.05295831
4737 1 96.62571712 14.97018153 23.13573508
4738 1 92.54294034 13.60925593 24.49666068
4739 1 96.62571712 12.24833034 25.85758627
4740 1 92.54294034 10.88740475 21.77480949
4741 1 93.90386594 14.97018153 25.85758627
4742 1 95.26479153 13.60925593 21.77480949
4743 1 93.90386594 12.24833034 23.13573508
4744 1 95.26479153 10.88740475 24.49666068
4745 1 96.62571712 14.97018153 28.57943746
4746 1 92.54294034 13.60925593 29.94036305
4747 1 96.62571712 12.24833034 31.30128864
4748 1 92.54294034 10.88740475 27.21851186
4749 1 93.90386594 14.97018153 31.30128864
4750 1 95.26479153 13.60925593 27.21851186
4751 1 93.90386594 12.24833034 28.57943746
4752 1 95.26479153 10.88740475 29.94036305
4753 1 85.73831238 20.4138839 1.36092559
4754 1 81.6555356 19.05295831 2.72185119
4755 1 85.73831238 17.69203271 4.08277678
4756 1 81.6555356 16.33110712 -1.8e-15
4757 1 83.01646119 20.4138839 4.08277678
4758 1 84.37738678 19.05295831 -2.1e-15
4759 1 83.01646119 17.69203271 1.36092559
4760 1 84.37738678 16.33110712 2.72185119
4761 1 85.73831238 20.4138839 6.80462797
4762 1 81.6555356 19.05295831 8.16555356
4763 1 85.73831238 17.69203271 9.52647915
4764 1 81.6555356 16.33110712 5.44370237
4765 1 83.01646119 20.4138839 9.52647915
4766 1 84.37738678 19.05295831 5.44370237
4767 1 83.01646119 17.69203271 6.80462797
4768 1 84.37738678 16.33110712 8.16555356
4769 1 85.73831238 20.4138839 12.24833034
4770 1 81.6555356 19.05295831 13.60925593
4771 1 85.73831238 17.69203271 14.97018153
4772 1 81.6555356 16.33110712 10.88740475
4773 1 83.01646119 20.4138839 14.97018153
4774 1 84.37738678 19.05295831 10.88740475
4775 1 83.01646119 17.69203271 12.24833034
4776 1 84.37738678 16.33110712 13.60925593
4777 1 85.73831238 25.85758627 1.36092559
4778 1 81.6555356 24.49666068 2.72185119
4779 1 85.73831238 23.13573509 4.08277678
4780 1 81.6555356 21.77480949 -1.21182158e-15
4781 1 83.01646119 25.85758627 4.08277678
4782 1 84.37738678 24.49666068 -1.51182158e-15
4783 1 83.01646119 23.13573509 1.36092559
4784 1 84.37738678 21.77480949 2.72185119
4785 1 85.73831238 25.85758627 6.80462797
4786 1 81.6555356 24.49666068 8.16555356
4787 1 85.73831238 23.13573509 9.52647915
4788 1 81.6555356 21.77480949 5.44370237
4789 1 83.01646119 25.85758627 9.52647915
4790 1 84.37738678 24.49666068 5.44370237
4791 1 83.01646119 23.13573509 6.80462797
4792 1 84.37738678 21.77480949 8.16555356
4793 1 85.73831238 25.85758627 12.24833034
4794 1 81.6555356 24.49666068 13.60925593
4795 1 85.73831238 23.13573509 14.97018153
4796 1 81.6555356 21.77480949 10.88740475
4797 1 83.01646119 25.85758627 14.97018153
4798 1 84.37738678 24.49666068 10.88740475
4799 1 83.01646119 23.13573509 12.24833034
4800 1 84.37738678 21.77480949 13.60925593
4801 1 85.73831238 31.30128864 1.36092559
4802 1 81.6555356 29.94036305 2.72185119
4803 1 85.73831238 28.57943746 4.08277678
4804 1 81.6555356 27.21851186 -1.51182158e-15
4805 1 83.01646119 31.30128864 4.08277678
4806 1 84.37738678 29.94036305 -1.81182158e-15
4807 1 83.01646119 28.57943746 1.36092559
4808 1 84.37738678 27.21851186 2.72185119
4809 1 85.73831238 31.30128864 6.80462797
4810 1 81.6555356 29.94036305 8.16555356
4811 1 85.73831238 28.57943746 9.52647915
4812 1 81.6555356 27.21851186 5.44370237
4813 1 83.01646119 31.30128864 9.52647915
4814 1 84.37738678 29.94036305 5.44370237
4815 1 83.01646119 28.57943746 6.80462797
4816 1 84.37738678 27.21851186 8.16555356
4817 1 85.73831238 31.30128864 12.24833034
4818 1 81.6555356 29.94036305 13.60925593
4819 1 85.73831238 28.57943746 14.97018153
4820 1 81.6555356 27.21851186 10.88740475
4821 1 83.01646119 31.30128864 14.97018153
4822 1 84.37738678 29.94036305 10.88740475
4823 1 83.01646119 28.57943746 12.24833034
4824 1 84.37738678 27.21851186 13.60925593
4825 1 91.18201475 20.4138839 1.36092559
4826 1 87.09923797 19.05295831 2.72185119
4827 1 91.18201475 17.69203271 4.08277678
4828 1 87.09923797 16.33110712 -1.21182158e-15
4829 1 88.46016356 20.4138839 4.08277678
4830 1 89.82108916 19.05295831 -1.51182158e-15
4831 1 88.46016356 17.69203271 1.36092559
4832 1 89.82108916 16.33110712 2.72185119
4833 1 91.18201475 20.4138839 6.80462797
4834 1 87.09923797 19.05295831 8.16555356
4835 1 91.18201475 17.69203271 9.52647915
4836 1 87.09923797 16.33110712 5.44370237
4837 1 88.46016356 20.4138839 9.52647915
4838 1 89.82108916 19.05295831 5.44370237
4839 1 88.46016356 17.69203271 6.80462797
4840 1 89.82108916 16.33110712 8.16555356
4841 1 91.18201475 20.4138839 12.24833034
4842 1 87.09923797 19.05295831 13.60925593
4843 1 91.18201475 17.69203271 14.97018153
4844 1 87.09923797 16.33110712 10.88740475
4845 1 88.46016356 20.4138839 14.97018153
4846 1 89.82108916 19.05295831 10.88740475
4847 1 88.46016356 17.69203271 12.24833034
4848 1 89.82108916 16.33110712 13.60925593
4849 1 91.18201475 25.85758627 1.36092559
4850 1 87.09923797 24.49666068 2.72185119
4851 1 91.18201475 23.13573509 4.08277678
4852 1 87.09923797 21.77480949 -1.51182158e-15
4853 1 88.46016356 25.85758627 4.08277678
4854 1 89.82108916 24.49666068 -1.81182158e-15
4855 1 88.46016356 23.13573509 1.36092559
4856 1 89.82108916 21.77480949 2.72185119
4857 1 91.18201475 25.85758627 6.80462797
4858 1 87.09923797 24.49666068 8.16555356
4859 1 91.18201475 23.13573509 9.52647915
4860 1 87.09923797 21.77480949 5.44370237
4861 1 88.46016356 25.85758627 9.52647915
4862 1 89.82108916 24.49666068 5.44370237
4863 1 88.46016356 23.13573509 6.80462797
4864 1 89.82108916 21.77480949 8.16555356
4865 1 91.18201475 25.85758627 12.24833034
4866 1 87.09923797 24.49666068 13.60925593
4867 1 91.18201475 23.13573509 14.97018153
4868 1 87.09923797 21.77480949 10.88740475
4869 1 88.46016356 25.85758627 14.97018153
4870 1 89.82108916 24.49666068 10.88740475
4871 1 88.46016356 23.13573509 12.24833034
4872 1 89.82108916 21.77480949 13.60925593
4873 1 91.18201475 31.30128864 1.36092559
4874 1 87.09923797 29.94036305 2.72185119
4875 1 91.18201475 28.57943746 4.08277678
4876 1 87.09923797 27.21851186 -1.81182158e-15
4877 1 88.46016356 31.30128864 4.08277678
4878 1 89.82108916 29.94036305 -2.11182158e-15
4879 1 88.46016356 28.57943746 1.36092559
4880 1 89.82108916 27.21851186 2.72185119
4881 1 91.18201475 31.30128864 6.80462797
4882 1 87.09923797 29.94036305 8.16555356
4883 1 91.18201475 28.57943746 9.52647915
4884 1 87.09923797 27.21851186 5.44370237
4885 1 88.46016356 31.30128864 9.52647915
4886 1 89.82108916 29.94036305 5.44370237
4887 1 88.46016356 28.57943746 6.80462797
4888 1 89.82108916 27.21851186 8.16555356
4889 1 91.18201475 31.30128864 12.24833034
4890 1 87.09923797 29.94036305 13.60925593
4891 1 91.18201475 28.57943746 14.97018153
4892 1 87.09923797 27.21851186 10.88740475
4893 1 88.46016356 31.30128864 14.97018153
4894 1 89.82108916 29.94036305 10.88740475
4895 1 88.46016356 28.57943746 12.24833034
4896 1 89.82108916 27.21851186 13.60925593
4897 1 96.62571712 20.4138839 1.36092559
4898 1 92.54294034 19.05295831 2.72185119
4899 1 96.62571712 17.69203271 4.08277678
4900 1 92.54294034 16.33110712 -1.51182158e-15
4901 1 93.90386594 20.4138839 4.08277678
4902 1 95.26479153 19.05295831 -1.81182158e-15
4903 1 93.90386594 17.69203271 1.36092559
4904 1 95.26479153 16.33110712 2.72185119
4905 1 96.62571712 20.4138839 6.80462797
4906 1 92.54294034 19.05295831 8.16555356
4907 1 96.62571712 17.69203271 9.52647915
4908 1 92.54294034 16.33110712 5.44370237
4909 1 93.90386594 20.4138839 9.52647915
4910 1 95.26479153 19.05295831 5.44370237
4911 1 93.90386594 17.69203271 6.80462797
4912 1 95.26479153 16.33110712 8.16555356
4913 1 96.62571712 20.4138839 12.24833034
4914 1 92.54294034 19.05295831 13.60925593
4915 1 96.62571712 17.69203271 14.97018153
4916 1 92.54294034 16.33110712 10.88740475
4917 1 93.90386594 20.4138839 14.97018153
4918 1 95.26479153 19.05295831 10.88740475
4919 1 93.90386594 17.69203271 12.24833034
4920 1 95.26479153 16.33110712 13.60925593
4921 1 96.62571712 25.85758627 1.36092559
4922 1 92.54294034 24.49666068 2.72185119
4923 1 96.62571712 23.13573509 4.08277678
4924 1 92.54294034 21.77480949 -1.81182158e-15
4925 1 93.90386594 25.85758627 4.08277678
4926 1 95.26479153 24.49666068 -2.11182158e-15
4927 1 93.90386594 23.13573509 1.36092559
4928 1 95.26479153 21.77480949 2.72185119
4929 1 96.62571712 25.85758627 6.80462797
4930 1 92.54294034 24.49666068 8.16555356
4931 1 96.62571712 23.13573509 9.52647915
4932 1 92.54294034 21.77480949 5.44370237
4933 1 93.90386594 25.85758627 9.52647915
4934 1 95.26479153 24.49666068 5.44370237
4935 1 93.90386594 23.13573509 6.80462797
4936 1 95.26479153 21.77480949 8.16555356
4937 1 96.62571712 25.85758627 12.24833034
4938 1 92.54294034 24.49666068 13.60925593
4939 1 96.62571712 23.13573509 14.97018153
4940 1 92.54294034 21.77480949 10.88740475
4941 1 93.90386594 25.85758627 14.97018153
4942 1 95.26479153 24.49666068 10.88740475
4943 1 93.90386594 23.13573509 12.24833034
4944 1 95.26479153 21.77480949 13.60925593
4945 1 96.62571712 31.30128864 1.36092559
4946 1 92.54294034 29.94036305 2.72185119
4947 1 96.62571712 28.57943746 4.08277678
4948 1 92.54294034 27.21851186 -1.22364316e-15
4949 1 93.90386594 31.30128864 4.08277678
4950 1 95.26479153 29.94036305 -1.52364316e-15
4951 1 93.90386594 28.57943746 1.36092559
4952 1 95.26479153 27.21851186 2.72185119
4953 1 96.62571712 31.30128864 6.80462797
4954 1 92.54294034 29.94036305 8.16555356
4955 1 96.62571712 28.57943746 9.52647915
4956 1 92.54294034 27.21851186 5.44370237
4957 1 93.90386594 31.30128864 9.52647915
4958 1 95.26479153 29.94036305 5.44370237
4959 1 93.90386594 28.57943746 6.80462797
4960 1 95.26479153 27.21851186 8.16555356
4961 1 96.62571712 31.30128864 12.24833034
4962 1 92.54294034 29.94036305 13.60925593
4963 1 96.62571712 28.57943746 14.97018153
4964 1 92.54294034 27.21851186 10.88740475
4965 1 93.90386594 31.30128864 14.97018153
4966 1 95.26479153 29.94036305 10.88740475
4967 1 93.90386594 28.57943746 12.24833034
4968 1 95.26479153 27.21851186 13.60925593
4969 1 85.73831238 20.4138839 17.69203271
4970 1 81.6555356 19.05295831 19.05295831
4971 1 85.73831238 17.69203271 20.4138839
4972 1 81.6555356 16.33110712 16.33110712
4973 1 83.01646119 20.4138839 20.4138839
4974 1 84.37738678 19.05295831 16.33110712
4975 1 83.01646119 17.69203271 17.69203271
4976 1 84.37738678 16.33110712 19.05295831
4977 1 85.73831238 20.4138839 23.13573508
4978 1 81.6555356 19.05295831 24.49666068
4979 1 85.73831238 17.69203271 25.85758627
4980 1 81.6555356 16.33110712 21.77480949
4981 1 83.01646119 20.4138839 25.85758627
4982 1 84.37738678 19.05295831 21.77480949
4983 1 83.01646119 17.69203271 23.13573508
4984 1 84.37738678 16.33110712 24.49666068
4985 1 85.73831238 20.4138839 28.57943746
4986 1 81.6555356 19.05295831 29.94036305
4987 1 85.73831238 17.69203271 31.30128864
4988 1 81.6555356 16.33110712 27.21851186
4989 1 83.01646119 20.4138839 31.30128864
4990 1 84.37738678 19.05295831 27.21851186
4991 1 83.01646119 17.69203271 28.57943746
4992 1 84.37738678 16.33110712 29.94036305
4993 1 85.73831238 25.85758627 17.69203271
4994 1 81.6555356 24.49666068 19.05295831
4995 1 85.73831238 23.13573509 20.4138839
4996 1 81.6555356 21.77480949 16.33110712
4997 1 83.01646119 25.85758627 20.4138839
4998 1 84.37738678 24.49666068 16.33110712
4999 1 83.01646119 23.13573509 17.69203271
5000 1 84.37738678 21.77480949 19.05295831
5001 1 85.73831238 25.85758627 23.13573508
5002 1 81.6555356 24.49666068 24.49666068
5003 1 85.73831238 23.13573509 25.85758627
5004 1 81.6555356 21.77480949 21.77480949
5005 1 83.01646119 25.85758627 25.85758627
5006 1 84.37738678 24.49666068 21.77480949
5007 1 83.01646119 23.13573509 23.13573508
5008 1 84.37738678 21.77480949 24.49666068
5009 1 85.73831238 25.85758627 28.57943746
5010 1 81.6555356 24.49666068 29.94036305
5011 1 85.73831238 23.13573509 31.30128864
5012 1 81.6555356 21.77480949 27.21851186
5013 1 83.01646119 25.85758627 31.30128864
5014 1 84.37738678 24.49666068 27.21851186
5015 1 83.01646119 23.13573509 28.57943746
5016 1 84.37738678 21.77480949 29.94036305
5017 1 85.73831238 31.30128864 17.69203271
5018 1 81.6555356 29.94036305 19.05295831
5019 1 85.73831238 28.57943746 20.4138839
5020 1 81.6555356 27.21851186 16.33110712
5021 1 83.01646119 31.30128864 20.4138839
5022 1 84.37738678 29.94036305 16.33110712
5023 1 83.01646119 28.57943746 17.69203271
5024 1 84.37738678 27.21851186 19.05295831
5025 1 85.73831238 31.30128864 23.13573508
5026 1 81.6555356 29.94036305 24.49666068
5027 1 85.73831238 28.57943746 25.85758627
5028 1 81.6555356 27.21851186 21.77480949
5029 1 83.01646119 31.30128864 25.85758627
5030 1 84.37738678 29.94036305 21.77480949
5031 1 83.01646119 28.57943746 23.13573508
5032 1 84.37738678 27.21851186 24.49666068
5033 1 85.73831238 31.30128864 28.57943746
5034 1 81.6555356 29.94036305 29.94036305
5035 1 85.73831238 28.57943746 31.30128864
5036 1 81.6555356 27.21851186 27.21851186
5037 1 83.01646119 31.30128864 31.30128864
5038 1 84.37738678 29.94036305 27.21851186
5039 1 83.01646119 28.57943746 28.57943746
5040 1 84.37738678 27.21851186 29.94036305
5041 1 91.18201475 20.4138839 17.69203271
5042 1 87.09923797 19.05295831 19.05295831
5043 1 91.18201475 17.69203271 20.4138839
5044 1 87.09923797 16.33110712 16.33110712
5045 1 88.46016356 20.4138839 20.4138839
5046 1 89.82108916 19.05295831 16.33110712
5047 1 88.46016356 17.69203271 17.69203271
5048 1 89.82108916 16.33110712 19.05295831
5049 1 91.18201475 20.4138839 23.13573508
5050 1 87.09923797 19.05295831 24.49666068
5051 1 91.18201475 17.69203271 25.85758627
5052 1 87.09923797 16.33110712 21.77480949
5053 1 88.46016356 20.4138839 25.85758627
5054 1 89.82108916 19.05295831 21.77480949
5055 1 88.46016356 17.69203271 23.13573508
5056 1 89.82108916 16.33110712 24.49666068
5057 1 91.18201475 20.4138839 28.57943746
5058 1 87.09923797 19.05295831 29.94036305
5059 1 91.18201475 17.69203271 31.30128864
5060 1 87.09923797 16.33110712 27.21851186
5061 1 88.46016356 20.4138839 31.30128864
5062 1 89.82108916 19.05295831 27.21851186
5063 1 88.46016356 17.69203271 28.57943746
5064 1 89.82108916 16.33110712 29.94036305
5065 1 91.18201475 25.85758627 17.69203271
5066 1 87.09923797 24.49666068 19.05295831
5067 1 91.18201475 23.13573509 20.4138839
5068 1 87.09923797 21.77480949 16.33110712
5069 1 88.46016356 25.85758627 20.4138839
5070 1 89.82108916 24.49666068 16.33110712
5071 1 88.46016356 23.13573509 17.69203271
5072 1 89.82108916 21.77480949 19.05295831
5073 1 91.18201475 25.85758627 23.13573508
5074 1 87.09923797 24.49666068 24.49666068
5075 1 91.18201475 23.13573509 25.85758627
5076 1 87.09923797 21.77480949 21.77480949
5077 1 88.46016356 25.85758627 25.85758627
5078 1 89.82108916 24.49666068 21.77480949
5079 1 88.46016356 23.13573509 23.13573508
5080 1 89.82108916 21.77480949 24.49666068
5081 1 91.18201475 25.85758627 28.57943746
5082 1 87.09923797 24.49666068 29.94036305
5083 1 91.18201475 23.13573509 31.30128864
5084 1 87.09923797 21.77480949 27.21851186
5085 1 88.46016356 25.85758627 31.30128864
5086 1 89.82108916 24.49666068 27.21851186
5087 1 88.46016356 23.13573509 28.57943746
5088 1 89.82108916 21.77480949 29.94036305
5089 1 91.18201475 31.30128864 17.69203271
5090 1 87.09923797 29.94036305 19.05295831
5091 1 91.18201475 28.57943746 20.4138839
5092 1 87.09923797 27.21851186 16.33110712
5093 1 88.46016356 31.30128864 20.4138839
5094 1 89.82108916 29.94036305 16.33110712
5095 1 88.46016356 28.57943746 17.69203271
5096 1 89.82108916 27.21851186 19.05295831
5097 1 91.18201475 31.30128864 23.13573508
5098 1 87.09923797 29.94036305 24.49666068
5099 1 91.18201475 28.57943746 25.85758627
5100 1 87.09923797 27.21851186 21.77480949
5101 1 88.46016356 31.30128864 25.85758627
5102 1 89.82108916 29.94036305 21.77480949
5103 1 88.46016356 28.57943746 23.13573508
5104 1 89.82108916 27.21851186 24.49666068
5105 1 91.18201475 31.30128864 28.57943746
5106 1 87.09923797 29.94036305 29.94036305
5107 1 91.18201475 28.57943746 31.30128864
5108 1 87.09923797 27.21851186 27.21851186
5109 1 88.46016356 31.30128864 31.30128864
5110 1 89.82108916 29.94036305 27.21851186
5111 1 88.46016356 28.57943746 28.57943746
5112 1 89.82108916 27.21851186 29.94036305
5113 1 96.62571712 20.4138839 17.69203271
5114 1 92.54294034 19.05295831 19.05295831
5115 1 96.62571712 17.69203271 20.4138839
5116 1 92.54294034 16.33110712 16.33110712
5117 1 93.90386594 20.4138839 20.4138839
5118 1 95.26479153 19.05295831 16.33110712
5119 1 93.90386594 17.69203271 17.69203271
5120 1 95.26479153 16.33110712 19.05295831
5121 1 96.62571712 20.4138839 23.13573508
5122 1 92.54294034 19.05295831 24.49666068
5123 1 96.62571712 17.69203271 25.85758627
5124 1 92.54294034 16.33110712 21.77480949
5125 1 93.90386594 20.4138839 25.85758627
5126 1 95.26479153 19.05295831 21.77480949
5127 1 93.90386594 17.69203271 23.13573508
5128 1 95.26479153 16.33110712 24.49666068
5129 1 96.62571712 20.4138839 28.57943746
5130 1 92.54294034 19.05295831 29.94036305
5131 1 96.62571712 17.69203271 31.30128864
5132 1 92.54294034 16.33110712 27.21851186
5133 1 93.90386594 20.4138839 31.30128864
5134 1 95.26479153 19.05295831 27.21851186
5135 1 93.90386594 17.69203271 28.57943746
5136 1 95.26479153 16.33110712 29.94036305
5137 1 96.62571712 25.85758627 17.69203271
5138 1 92.54294034 24.49666068 19.05295831
5139 1 96.62571712 23.13573509 20.4138839
5140 1 92.54294034 21.77480949 16.33110712
5141 1 93.90386594 25.85758627 20.4138839
5142 1 95.26479153 24.49666068 16.33110712
5143 1 93.90386594 23.13573509 17.69203271
5144 1 95.26479153 21.77480949 19.05295831
5145 1 96.62571712 25.85758627 23.13573508
5146 1 92.54294034 24.49666068 24.49666068
5147 1 96.62571712 23.13573509 25.85758627
5148 1 92.54294034 21.77480949 21.77480949
5149 1 93.90386594 25.85758627 25.85758627
5150 1 95.26479153 24.49666068 21.77480949
5151 1 93.90386594 23.13573509 23.13573508
5152 1 95.26479153 21.77480949 24.49666068
5153 1 96.62571712 25.85758627 28.57943746
5154 1 92.54294034 24.49666068 29.94036305
5155 1 96.62571712 23.13573509 31.30128864
5156 1 92.54294034 21.77480949 27.21851186
5157 1 93.90386594 25.85758627 31.30128864
5158 1 95.26479153 24.49666068 27.21851186
5159 1 93.90386594 23.13573509 28.57943746
5160 1 95.26479153 21.77480949 29.94036305
5161 1 96.62571712 31.30128864 17.69203271
5162 1 92.54294034 29.94036305 19.05295831
5163 1 96.62571712 28.57943746 20.4138839
5164 1 92.54294034 27.21851186 16.33110712
5165 1 93.90386594 31.30128864 20.4138839
5166 1 95.26479153 29.94036305 16.33110712
5167 1 93.90386594 28.57943746 17.69203271
5168 1 95.26479153 27.21851186 19.05295831
5169 1 96.62571712 31.30128864 23.13573508
5170 1 92.54294034 29.94036305 24.49666068
5171 1 96.62571712 28.57943746 25.85758627
5172 1 92.54294034 27.21851186 21.77480949
5173 1 93.90386594 31.30128864 25.85758627
5174 1 95.26479153 29.94036305 21.77480949
5175 1 93.90386594 28.57943746 23.13573508
5176 1 95.26479153 27.21851186 24.49666068
5177 1 96.62571712 31.30128864 28.57943746
5178 1 92.54294034 29.94036305 29.94036305
5179 1 96.62571712 28.57943746 31.30128864
5180 1 92.54294034 27.21851186 27.21851186
5181 1 93.90386594 31.30128864 31.30128864
5182 1 95.26479153 29.94036305 27.21851186
5183 1 93.90386594 28.57943746 28.57943746
5184 1 95.26479153 27.21851186 29.94036305
